42
BURNIO seed=42 prior=1.0; geometry repair, all atoms retained
Pt -0.44347271 5.16671133 9.33162975
F 1.12016630 8.88209534 6.78139019
F 5.88940048 0.95903909 5.09394360
N -2.37131071 5.29796696 10.27387428
N -0.94258463 2.96260476 10.03992367
C -0.12667793 6.58273745 8.87897205
C 0.53945088 7.38514900 8.15186310
H 1.04355073 6.82993174 7.67622662
C 0.01173594 8.43565750 8.07503986
C -1.12922382 9.48545742 7.74764252
H -1.55433571 10.07936954 7.98845243
C -1.43522871 8.95276165 9.03810883
H -3.01437426 9.47675610 9.80554962
C -1.73071539 7.68746901 9.26567078
C -2.36575985 6.67586040 10.25390530
H -3.39587998 6.89783573 10.68463898
C -2.77374291 4.45448732 11.05772018
H -3.67333961 4.81044722 11.29156208
H -2.02348185 4.37106037 12.19981956
C -2.59089828 3.27232695 10.63001823
H -2.41978312 2.22206450 11.59058285
H -3.15535712 3.27816558 9.59946060
C -0.76468885 1.38916421 9.52304173
H -1.39748955 1.77708101 8.78953171
H -1.11406636 1.41474879 10.23051929
H 0.52704012 1.29481912 9.53996563
C -0.26301500 3.10381174 11.39094734
H 0.69490260 2.53428411 11.07835960
H -0.56473500 2.02024674 12.28157616
H -0.04403030 3.99850178 11.75394535
C 0.92444694 4.21989727 7.91665220
C 1.73819101 3.62632895 7.72428799
C 3.11159682 3.04486823 7.26288509
C 2.55850267 1.42974269 6.21040201
H 2.07202387 1.76235223 6.15192652
C 3.43712330 1.04187071 5.62290573
H 3.45915151 0.33741364 4.73569250
C 4.40832472 1.94081986 5.60086250
C 5.24349928 3.00864363 6.29786634
H 6.30841017 3.44191575 6.48544121
C 4.44557810 3.47594452 7.02619886
H 4.31321192 4.26347303 7.34244919
