42
BURNIO seed=1234 prior=1.0; geometry repair, all atoms retained
Pt -0.73825735 4.92968607 9.22728348
F 0.68006647 9.07431602 6.56160593
F 5.72947741 1.42976594 4.78278685
N -2.16422486 5.58686113 10.12141228
N -0.90564078 2.89267778 10.42669010
C -0.57514369 6.53808117 8.26242352
C 0.90959656 7.50521278 8.29904747
H 1.15325153 6.83256912 7.25182533
C 0.18910277 8.67336369 7.42606497
C -0.89926100 9.04286575 7.97598314
H -1.41672194 10.39945793 7.71593666
C -1.42904186 8.69806099 8.96242809
H -2.47520852 9.67577362 9.16815948
C -1.14359927 7.20843840 9.17039108
C -2.09151340 6.60910130 9.94446182
H -3.04218554 7.91462421 10.60052395
C -2.50601411 4.90003681 10.76314545
H -3.43120623 4.48035717 11.36306381
H -1.85789835 4.64559937 12.23488140
C -2.73552275 2.50404882 10.87746429
H -2.34704089 2.13198280 11.69217014
H -3.27975035 3.20202279 9.75173664
C -0.82450038 1.84281206 9.71356583
H -1.42719221 1.96449995 8.46226215
H -1.27155459 0.74505579 10.12315464
H 0.29157746 1.10881937 9.46304893
C -0.07637163 3.11429858 11.71474361
H 0.78469527 2.85943103 11.07936382
H -0.47918493 2.04957342 12.53082752
H 0.04668711 3.79421043 11.96936131
C 1.23286939 3.92944360 8.04573631
C 1.74917352 3.76393247 7.50776577
C 3.25243306 3.54716516 6.96729708
C 2.60420656 2.21357131 6.15032864
H 1.28618002 1.53831291 6.19498110
C 3.43490410 1.44533873 5.34785748
H 3.40376329 0.23283464 5.17098904
C 4.77721977 1.78588223 5.59691954
C 5.66857386 2.88986206 6.45702267
H 6.25640011 3.21138501 6.58670759
C 4.15877581 3.66825056 7.20928860
H 4.42786551 4.59765673 7.30655622
