71
CSD_code = HEHNER | q = 0 | S = 0 | Stoichiometry = C36H24Cl2F6P2Pt | MND = 4 | 2020-2024 CSD
Pt 3.40760016 3.28767276 12.87968349
Cl 3.49521852 2.50446081 15.02849483
Cl 1.26490402 4.09189415 13.19119930
P 5.52869081 2.49592590 12.64574528
P 2.93420172 4.17218399 10.81940174
F 8.37280560 0.60532790 17.46553421
F 5.88109016 -2.24179506 9.13124561
F 8.74751568 6.98722410 10.55828762
F 7.38562107 4.76883411 6.94376802
F -0.88780594 0.86152238 7.75443316
F 0.78907365 9.65216827 11.35955334
C 6.09999657 0.73441619 14.67311859
H 5.29882860 0.16075253 14.22926140
C 6.73555470 0.27512851 15.80793858
H 6.45836067 -0.65831620 16.27124977
C 7.74177837 1.04875600 16.36383057
C 8.12269115 2.26090145 15.81731129
H 8.90646744 2.83676600 16.28370667
C 7.47673988 2.71407652 14.68081093
H 7.75965548 3.66312432 14.24945068
C 6.47160769 1.95030820 14.09994125
C 6.89320469 0.37373406 11.39591217
H 7.77462959 0.71264732 11.92168999
C 6.96372414 -0.73280305 10.57122326
H 7.89030886 -1.26359582 10.41860867
C 5.81109762 -1.16983187 9.93757534
C 4.58938169 -0.54382026 10.11875153
H 3.70949888 -0.92856908 9.62740612
C 4.53531981 0.56530213 10.94203758
H 3.59263635 1.07090700 11.12598705
C 5.68284893 1.04150939 11.56692314
C 7.51976442 3.61332464 10.91540432
H 7.66743755 2.63938785 10.47498035
C 8.25491619 4.69149542 10.45433426
H 8.98264027 4.57858896 9.66617107
C 8.04324436 5.93787336 11.01635170
C 7.11650848 6.14303160 12.02585125
H 6.97971058 7.13089323 12.43670559
C 6.39015198 5.05905008 12.47455597
H 5.65564632 5.17339516 13.26611614
C 6.58884954 3.79040313 11.92955303
C 4.74578667 3.29045701 8.89988613
H 4.28564167 2.32694483 9.06268120
C 5.78999329 3.40527892 8.00469589
H 6.16366863 2.55063391 7.46311045
C 6.35889292 4.65171480 7.80511618
C 5.90909815 5.77538586 8.47458553
H 6.37571573 6.73069715 8.29231358
C 4.86321068 5.64384937 9.36951542
H 4.50133801 6.51461840 9.89592457
C 4.26723433 4.40549469 9.58502388
C 1.55040383 3.40792322 8.50452328
H 2.09929991 4.19277287 8.00305748
C 0.65582716 2.63285279 7.79190588
H 0.47779161 2.80143952 6.74145937
C -0.02189435 1.61900973 8.44977760
C 0.17432466 1.35745883 9.79460049
H -0.36977872 0.55808491 10.27213287
C 1.06952763 2.14172125 10.49786949
H 1.22865784 1.96895945 11.55607700
C 1.75622714 3.17249799 9.86328316
C 1.14660060 6.26964569 10.15351772
H 0.67162955 5.59771681 9.45496273
C 0.65896147 7.55623150 10.30226421
H -0.18161508 7.90621424 9.72403336
C 1.25816035 8.39904785 11.22063637
C 2.32449436 7.99079752 12.00560474
H 2.75163627 8.66992569 12.72650719
C 2.79902720 6.70466423 11.85052872
H 3.60884166 6.34177303 12.47236633
C 2.22277975 5.84183073 10.91943359
