71
HEHNER seed=0 prior=1.0; geometry repair, all atoms retained
Pt 3.23793602 3.12685657 12.45229244
Cl 3.42822051 2.51233125 14.90401363
Cl 1.09537470 4.02161884 12.84312153
P 5.49351358 2.08273578 13.03754044
P 3.01212311 4.12613678 11.14106274
F 8.66829395 0.57356304 17.76975632
F 6.23992014 -1.97667992 9.00771236
F 8.39142036 6.80611563 10.23396969
F 7.40304375 4.76698256 7.41800499
F -0.71586132 0.84203535 7.54511309
F 1.12673521 9.58018875 11.21042061
C 6.01793194 0.50726479 14.47163391
H 5.11366224 0.14815618 14.36513042
C 7.11430550 0.27865869 15.92123890
H 6.86708832 -0.48021811 16.22610855
C 7.99808407 0.68321800 16.17498398
C 8.07678127 2.35649848 15.91525459
H 8.88571930 3.06104684 16.00564003
C 7.50465155 2.83564591 14.54332638
H 7.67888308 3.52640247 14.47567177
C 6.54252911 1.98056674 14.21818352
C 6.62263393 0.36537251 11.15255260
H 8.01361084 0.41778404 11.67008781
C 6.99272203 -0.56151175 10.46812534
H 7.72185516 -1.39870691 10.59107113
C 5.42317772 -1.07470047 9.92667961
C 4.67931652 -0.66988480 10.04112053
H 3.90058804 -1.71102512 9.71475983
C 4.52841663 0.92650694 10.94134521
H 3.64011216 1.12694335 11.06778812
C 5.92569256 1.46083963 11.60054016
C 7.65091753 3.90580869 10.67648506
H 7.64601326 2.26497412 10.24814129
C 8.14180756 4.70803833 10.44473934
H 9.12863350 4.79972458 9.26247406
C 8.15536690 6.12139034 10.80492783
C 7.28118801 6.05417967 11.54817963
H 6.93758583 7.60512209 12.56502724
C 6.66519070 4.71132421 12.40893364
H 5.29491234 5.55953693 13.26916218
C 7.12476206 3.55879879 12.35227966
C 4.68201542 3.06492925 8.84668255
H 4.20277119 2.27637982 8.77639580
C 5.64712906 3.24252748 8.52405834
H 5.81285667 2.87070537 6.93247175
C 6.13324308 4.71843338 7.61175346
C 5.86023283 5.68662548 8.55959320
H 6.34053564 6.81852865 8.04714394
C 4.76503181 5.78422213 9.38220978
H 4.89826107 6.41363096 9.83980179
C 4.22333384 4.44342566 9.60035992
C 1.20092833 3.39941335 8.44433689
H 2.36102629 4.51414633 8.19235229
C 0.44799978 2.73313570 7.67157030
H 0.23147282 3.03596997 6.83330011
C -0.13878055 1.22569227 8.70934677
C 0.03100994 1.42622566 9.72574806
H -0.32993579 -0.00605273 10.40678692
C 0.76168013 2.52768064 10.52409077
H 1.11300063 2.08505154 11.59358120
C 1.41099834 3.64367890 9.58823872
C 1.21562171 6.09839582 10.31833172
H 0.46718469 5.57438374 9.50290871
C 0.71257013 7.37199783 10.18937492
H -0.21547905 7.57693577 9.50558186
C 1.15606022 8.49170399 11.27819061
C 1.98761129 7.86563730 11.90256596
H 2.37526226 8.38920212 12.66413498
C 2.62485695 6.15599251 11.73916245
H 3.62321973 6.40949392 12.77965546
C 2.21908712 5.94001102 10.60718632
