113
OYUPIK seed=42 prior=1.0; geometry repair, all atoms retained
Pt 9.97082806 4.92847538 4.06442451
S 11.50774288 2.58916926 5.20400858
P 11.08024311 6.12166977 4.96163416
P 10.82257080 11.55609608 4.60422754
C 10.42018318 1.55182934 4.17784691
C 11.59032631 0.06885475 5.08653069
H 10.65536022 -0.35958731 5.90647697
H 11.88061333 0.43483090 5.86488914
H 11.34657097 -0.64887893 4.64823866
C 10.33222580 7.93221807 4.11142302
C 10.68660259 8.69243431 4.92071390
H 12.45961189 9.23927975 5.29837227
C 10.11323738 10.43441772 4.82703924
C 11.55795670 6.73932457 6.60606956
C 11.10219574 7.36946869 7.51211786
H 10.15361595 7.77886820 7.06728506
C 11.36099339 7.34702587 8.54241562
H 11.05125332 8.22871304 9.36270142
C 12.68282032 6.30692387 9.17571449
H 12.54839802 6.81681061 10.17048073
C 13.35850239 5.51708317 8.49551582
H 13.69603539 5.33356428 8.55292034
C 12.83326054 5.32391453 7.00443745
H 13.28383732 4.94436741 6.50749350
C 12.94202995 6.98514652 3.97482753
C 14.34456253 6.83407879 4.68394613
H 13.80439949 7.78019333 5.27758026
C 14.91598701 7.03159904 3.54712462
H 15.83480549 7.65854120 4.08750629
C 15.25840855 6.72364283 2.12917495
H 15.97882843 6.73560524 1.47873449
C 13.89610291 5.90306759 2.00731945
H 14.25466919 5.45421267 1.28205729
C 12.74059963 5.38297939 2.72640324
H 12.39049911 5.54824638 2.38876104
C 10.13045025 12.11394787 6.43440723
C 10.94078350 13.28834820 6.89451265
H 11.33426285 13.95944691 6.66890287
C 10.52468491 13.76906109 8.24731922
H 11.07594967 14.58249760 8.96528625
C 9.63180828 13.00419426 8.79677391
H 8.92795849 13.18644238 9.48761654
C 8.75035858 11.88662720 8.12305832
H 8.16804028 11.56553364 8.87644100
C 9.58156681 11.44445992 6.66660070
H 9.23336411 11.54348087 6.10312891
C 13.18389416 11.43859863 5.23300982
C 13.33589554 11.22369766 5.84249401
H 12.33597565 11.38360119 7.11261225
C 14.58798790 10.35129642 6.13729191
H 15.03172016 10.29691124 7.35256100
C 16.01415062 10.94701767 5.44597006
H 16.54743385 10.00285435 5.69202328
C 14.96869850 11.00741768 4.33400631
H 15.80790615 11.49606991 3.75199676
C 14.02718639 11.48186684 4.44614315
H 13.26479816 12.06247139 3.08109474
S 8.34373283 3.15498328 2.74810982
C 9.40848064 1.38984966 3.43990374
C 8.33069515 -0.14690226 2.86063433
H 9.15379429 -0.16144373 2.48697162
H 7.83990765 0.16238067 2.59642029
H 8.49429512 -0.21565606 3.92400384
P 8.47859287 6.18168259 2.97726154
P 8.72963047 11.92027569 3.64180398
C 9.01812840 7.88534164 3.56408143
C 8.73535633 9.72134399 3.52315426
H 7.89363909 9.27264404 3.20863008
C 9.17178345 10.30027199 3.55649400
C 8.15662479 6.78353977 1.68518710
C 8.67183781 7.61583424 0.64310646
H 9.45205212 8.53507328 1.02292109
C 8.46714115 7.51585007 -1.08369231
H 8.81323910 7.87170982 -1.30389404
C 7.35036516 7.14595699 -0.84658492
H 7.41245985 6.45867825 -2.25385642
C 6.72194195 5.28596926 -0.21925613
H 6.03725100 5.00154114 -0.87013853
C 7.14821672 5.89285517 1.44265175
H 6.70617294 4.95066500 1.56388032
C 6.52841091 6.24951601 4.56990337
C 5.90019846 6.98480701 3.73610950
H 5.58658934 7.55374527 2.72207737
C 4.49563026 7.12552929 4.52088404
H 3.84562874 7.53248072 4.32448816
C 4.17604446 6.11329794 6.01312923
H 3.73342848 6.81174850 6.46714544
C 5.84440565 5.52662802 6.80737591
H 5.28216839 5.35285139 7.16924858
C 6.91740417 5.95930910 5.83658028
H 7.79610109 5.35591125 5.72790861
C 9.10270882 12.40860462 1.77878201
C 8.31166935 13.27136898 1.07662046
H 7.77412939 13.92209435 2.11531663
C 9.15531063 13.43992519 0.19884035
H 8.87617970 14.63818741 -0.66047114
C 10.33389282 13.21561813 -0.35034633
H 10.69218922 12.95959282 -1.77791715
C 11.18398762 12.24369049 0.26814598
H 11.71808243 11.12486458 -0.35532522
C 10.48547649 11.36742878 1.67266583
H 10.63941479 10.99357128 2.06485152
C 6.53512001 11.05914211 3.32964802
C 6.89541054 10.84822559 1.72930193
H 6.98476171 10.19011307 0.95482600
C 5.27061605 10.84795856 1.27065539
H 5.05959606 10.52890587 0.08499449
C 4.62914085 10.36890316 2.29472566
H 3.27005982 10.58085823 1.87309062
C 4.62176800 11.42283535 3.82332015
H 3.67904949 10.86118031 4.61631298
C 5.97601128 11.33885670 3.77570510
H 6.85160160 12.14568996 4.61985826
