113
OYUPIK seed=0 prior=1.0; geometry repair, all atoms retained
Pt 9.76251411 4.34924841 3.71666574
S 11.26332283 2.96556950 4.82359123
P 11.06248093 6.30042458 4.44578171
P 11.05062199 11.55386448 5.24643230
C 10.52124691 1.45597291 4.77961588
C 11.42140007 0.21571958 5.21872711
H 10.81498337 -0.08612150 5.41001129
H 11.65364552 0.31724626 5.17191696
H 11.44550323 -0.36073995 4.53369284
C 10.67728233 7.86679554 4.19798040
C 11.47498131 9.01564407 4.56191397
H 12.02275181 8.85039425 4.99057007
C 10.32538128 10.26623535 4.54045773
C 12.10290813 6.50721884 6.69978857
C 11.48975945 7.58277464 7.38408566
H 10.55716610 7.68140268 6.85458994
C 11.39875698 7.57407188 8.85976505
H 10.93204689 8.41200352 9.13405514
C 12.45812798 6.76555443 9.12567329
H 12.62869263 6.56839275 10.53097916
C 13.11884499 5.75099087 8.55121994
H 13.53227901 5.04911041 8.58526039
C 12.93366051 5.35021544 6.84823036
H 13.18434906 5.09061098 6.33973885
C 12.68315601 6.28036785 4.14145327
C 13.56095314 7.21900511 4.43595266
H 14.00867081 7.46399212 5.34461975
C 15.28333092 6.42999029 3.76124358
H 15.93786526 8.12428856 4.04327869
C 15.19521427 6.65295458 2.37517810
H 16.28964043 7.08579779 1.87230515
C 14.18883610 6.17683458 1.71993041
H 14.08424187 5.02174807 0.76985145
C 12.79791832 5.81280851 2.71529913
H 12.19112015 5.45177555 1.97925436
C 10.56760883 12.48519993 6.12907696
C 11.24232388 13.20940685 6.61130714
H 11.91760921 14.25867176 6.82066822
C 10.85378742 13.30923653 8.26049614
H 10.70980644 14.81230259 8.90668678
C 9.98058033 12.80182076 9.24504185
H 8.98945713 13.08713627 9.73621082
C 8.72842789 12.00566864 7.78745174
H 7.78062057 11.40994930 8.97515583
C 8.95804119 12.01255512 6.30377769
H 8.57780552 10.99506092 6.06472588
C 12.81718254 11.41980457 5.20902586
C 13.19420910 11.04539013 6.10432386
H 12.39594269 10.99631214 7.14899302
C 14.92594242 10.43282700 6.50259924
H 14.75996494 10.13770485 7.52507925
C 15.12478542 10.64744568 5.49219894
H 16.74933052 10.64364529 5.91147995
C 14.91251659 11.30962563 4.21313381
H 15.61019135 11.54326248 3.64088821
C 13.70416355 11.24100590 4.38101339
H 13.38977814 12.13706398 3.10366845
S 8.52672291 2.50397444 3.17740369
C 9.02305794 1.88797045 3.74029541
C 8.53251457 0.36356020 3.29527044
H 8.97259331 0.11973530 2.36375189
H 7.83335447 0.32708883 2.84086180
H 8.14153767 -0.38204277 4.16089106
P 8.56385326 6.10547924 3.21295834
P 8.59887886 11.64233017 3.27343774
C 9.16679478 7.97892570 3.82212424
C 8.29998779 8.96244144 3.35783029
H 7.29299545 8.79679298 2.91749787
C 9.08943748 9.73014832 3.65600014
C 8.06468105 6.57138586 1.89256120
C 8.68976021 7.50287676 0.43035248
H 9.87517929 8.17980957 0.79767436
C 7.90062284 7.71630812 -0.64639014
H 8.67954636 8.26238632 -1.35693753
C 7.92702341 6.78302574 -0.86422139
H 7.13841009 6.13378382 -2.02777243
C 7.00611162 5.86944342 -0.18428287
H 6.28899670 5.08306026 -1.15231490
C 7.22718191 5.68373728 1.27344632
H 6.68138599 4.74801397 1.72582340
C 6.32846117 6.49845648 4.28637409
C 5.80638409 7.18030548 3.11140156
H 5.87414026 7.09779930 3.03944874
C 4.54854298 7.54320717 4.07004547
H 3.55234718 8.09855652 4.95607996
C 4.41462231 6.65642023 6.01005459
H 3.66473031 6.54236221 6.04454708
C 6.06761932 6.11230803 6.19765902
H 5.76881027 5.28074265 7.19813490
C 7.13724566 5.96578121 5.39907932
H 7.61002779 4.78283644 5.80711842
C 9.07615662 12.26374435 1.99347067
C 8.79710007 13.18394375 1.31155264
H 7.61266375 13.77577782 1.15073228
C 9.04369450 13.93822479 -0.33022636
H 8.97308159 14.25260067 -0.76555616
C 10.49706078 12.86688805 -0.60255653
H 10.28122616 13.16639137 -1.79138970
C 10.93197823 11.89477444 0.04594782
H 12.28097248 11.71854019 -0.29997018
C 10.98067284 11.63019753 0.88734031
H 10.86520863 10.64249229 2.21398044
C 6.99526501 11.33658600 2.93894982
C 6.29198456 10.72696304 1.96707118
H 7.59888887 10.39416790 1.27728558
C 5.06357956 10.54445744 2.09044504
H 4.76549721 9.93074703 1.01815474
C 4.53094053 10.70902061 2.76802921
H 3.24830461 10.21916866 2.60004449
C 5.17864180 11.43106270 3.78047752
H 4.10369396 11.24093246 4.39823532
C 6.17358303 11.43187809 4.26983166
H 5.79977989 12.23162937 4.98338461
