113
OYUPIK seed=1234 prior=1.0; geometry repair, all atoms retained
Pt 9.47117615 4.56154346 3.92489934
S 11.10150814 2.83336020 4.97963142
P 10.97813320 6.51392651 4.70494461
P 11.00807476 12.02356720 4.43509531
C 10.62949944 1.44214880 4.52638435
C 11.14891338 0.04658167 4.50507784
H 11.02550602 -0.23952386 6.05366230
H 11.99031448 0.43746826 5.44048786
H 11.52393818 -0.41117293 3.99926329
C 10.56218910 7.48962593 4.33976364
C 10.82421684 9.01252270 4.64819813
H 12.46579838 8.98457909 5.22269201
C 10.65240288 10.63343525 4.18964911
C 12.14507198 6.26029396 6.51078987
C 11.37644196 7.30270958 7.20267487
H 10.50731087 8.79565620 6.98316908
C 11.62872219 7.79257536 8.24784088
H 11.29338646 7.89862299 9.43420315
C 12.84840393 6.58146286 9.21077633
H 12.40377331 6.04853249 10.41792679
C 13.43124485 5.42700195 8.59710312
H 13.57164192 5.25742149 8.70519638
C 12.77344894 5.77756262 7.19496202
H 13.25413418 5.13178635 6.18022346
C 12.78454208 6.31545353 3.86746359
C 14.10910034 6.64807940 4.60702944
H 13.99104309 7.79068041 5.60137653
C 15.00577927 7.35674620 3.54812884
H 15.92035580 7.68786812 4.33675718
C 15.34912586 6.51935101 2.34459114
H 16.28725052 6.44515181 1.60781825
C 13.90708542 6.04067135 1.79079735
H 14.39550495 5.95651007 0.98646939
C 12.78630352 6.16680813 2.66632962
H 11.60465527 5.32420731 2.43181586
C 10.12823105 12.51741600 6.15935898
C 10.88539505 13.18376923 7.32980919
H 11.70315742 13.80450916 6.66495991
C 10.94975853 13.65027905 8.40647602
H 11.02394009 14.35196686 9.06655312
C 9.34500504 13.19650078 8.97986317
H 9.04261208 13.52062607 9.45172310
C 9.48876286 12.01425266 7.99311543
H 8.28003025 11.60399532 8.27209282
C 9.22018242 11.62468719 7.00448990
H 8.74477386 11.56321907 6.12108421
C 12.67249584 11.21019840 4.93371725
C 12.59378242 11.30481434 6.64091587
H 12.52514553 10.92410564 7.17721176
C 14.69767380 10.82960224 6.53779554
H 14.70252323 9.83333302 7.94408703
C 15.03404903 10.68337822 5.79935455
H 16.62853622 9.69870472 5.60787296
C 15.12981987 11.35681343 4.60222101
H 15.74846840 11.28523636 3.81652069
C 14.07112026 11.21427536 4.06192923
H 13.74475384 12.05041313 2.93700504
S 8.57843876 3.41286349 3.46715236
C 9.15811825 1.20066595 3.71250534
C 8.76044178 0.47618085 3.10257578
H 9.05846500 -0.22811335 2.18056655
H 8.02281952 0.25000349 2.85295463
H 8.56698513 -0.42612264 4.07157660
P 8.54145145 6.42046070 2.91755056
P 8.95346451 11.62058067 3.66206360
C 9.18056107 7.87346029 3.25567961
C 8.29689217 8.96876717 3.59194899
H 7.58274031 9.12735081 3.00857329
C 9.24944115 10.33171654 3.50024390
C 7.99209261 6.99857140 1.63857007
C 8.77770424 7.36260796 0.27400622
H 8.85786724 7.97995853 0.94407654
C 8.41570187 7.93804359 -0.51964885
H 8.94555950 8.55379772 -1.50488818
C 6.83405495 6.77019167 -1.19593608
H 6.99492836 6.29188204 -2.12220240
C 6.74539757 5.34476757 -0.10640541
H 5.93919802 5.10801411 -0.82291383
C 6.42434406 5.67107582 1.48563254
H 6.93923140 4.46143007 1.60517120
C 7.14945984 6.77319145 4.23941565
C 6.12754059 6.97129107 3.66572714
H 5.79259205 7.89896488 2.94056344
C 5.25868082 7.46084833 4.85533905
H 4.06845617 7.33125973 4.34061384
C 4.18619442 6.73064995 5.83687496
H 3.56748295 6.60132980 6.36283684
C 6.01333523 5.96501112 6.47632742
H 6.05061817 5.70250082 7.09828472
C 6.31222773 5.93424988 5.04773045
H 7.87555742 5.09026861 5.45682383
C 9.04015636 12.08285618 1.62194860
C 8.53146362 13.47990608 0.81879401
H 7.93125534 13.71825695 1.70981026
C 9.04859734 13.55914116 0.00534986
H 9.11426067 14.41882324 -0.80829120
C 10.63185978 12.80892944 -0.75478745
H 10.64917278 13.41537189 -1.81799483
C 10.92227364 12.36085415 0.02838328
H 11.71758652 11.75047493 -0.53046560
C 10.01395512 11.04475117 1.22623956
H 11.23700714 10.71797562 1.34498048
C 6.63786077 11.68793011 2.98096037
C 6.58153582 10.97854137 1.89790261
H 7.24509478 10.92930603 1.68592191
C 5.02564096 11.00286961 1.72932053
H 4.97762299 10.00459766 1.03451741
C 3.60477376 10.36077309 2.62248731
H 2.96463966 10.31529236 2.43797183
C 4.78967285 11.72971439 3.38543153
H 4.17456102 11.72082329 4.97598362
C 5.74350262 11.65083218 3.63138652
H 6.39559317 11.63030338 4.97607136
