36
PEXFIL seed=42 prior=0.0; geometry repair, all atoms retained
Pt 2.25147605 6.24108410 7.37931681
C 1.64156008 5.30113125 5.73508024
N 0.61404943 6.83579493 7.89000988
O 7.61918926 1.63344300 6.75675154
H 8.57740498 1.39075387 6.53157330
Cl 3.48593378 5.47656870 9.80732727
C 0.75504923 7.61188936 9.30913353
H 1.08256078 7.26158667 10.11475754
N 3.49647355 4.11339712 7.66065788
O 6.33980894 0.37818187 6.64046860
C -0.90025550 8.15337563 9.34517574
H -0.23375997 9.15234184 10.21488571
C -1.66045785 9.04601860 8.48766422
H -2.22473645 9.84628201 8.20343590
C -1.01534331 8.25667000 6.92370510
H -1.80023301 8.27219772 6.01623249
C -0.09053364 7.23184919 6.48004198
C 0.43403816 6.70942736 5.41485167
C -0.08368725 6.50063658 4.16755438
H -1.33469474 7.62720156 4.04468107
C 0.37903136 5.92800283 3.20203018
H -0.55751109 6.53588438 1.92538631
C 1.27993846 4.93738365 3.13142610
H 1.58575797 4.73250914 2.41704035
C 1.90128171 5.65684271 4.43446636
H 3.04062080 4.10727453 4.69929409
C 4.73789406 4.98924398 6.81412411
H 4.84397745 5.69034672 6.79931545
C 5.79582787 3.80761766 6.94613695
H 7.03079462 4.39356375 6.51637745
C 5.57159710 2.61290646 6.60229683
C 4.14756775 2.15516949 7.12553978
H 4.22828197 1.14204967 7.41588354
C 3.14632869 2.67733812 7.12726450
H 2.61718369 3.12933946 7.22283840
C 6.38391733 1.33330119 7.00632906
