36
PEXFIL seed=0 prior=1.0; geometry repair, all atoms retained
Pt 2.01834917 5.66664219 6.80663633
C 1.43205285 5.71494436 5.43642187
N 0.59870899 6.96024323 7.43891716
O 7.84724092 1.63121188 7.39895630
H 8.67846870 1.29489732 7.13334227
Cl 3.32598901 5.58610201 9.93520164
C 0.91467154 7.88535547 8.81266689
H 0.85559285 7.14400196 9.42178535
N 3.59540558 4.40153646 7.54611206
O 6.68486547 0.31275913 6.72702599
C -0.11187717 8.47658539 8.98637581
H -0.67061990 8.76345634 9.90708256
C -1.44831395 8.87783623 8.20108223
H -1.67978477 9.61417675 8.29715443
C -0.62777948 8.46997547 6.79567289
H -1.39668322 8.17473221 5.80353737
C -0.05277041 7.45889568 6.79739141
C 0.31483251 6.89271832 5.18620634
C -0.30837923 6.95926714 4.11751318
H -1.25440001 7.37878370 4.40517902
C 0.13937312 6.16191053 3.25773525
H -0.72126722 6.25143051 1.95772684
C 1.38033772 4.96368456 2.97521877
H 1.48626947 4.87875271 2.24928617
C 1.64240777 4.95206451 4.60109186
H 2.25701141 4.49220085 4.45130062
C 4.94216585 4.67304277 6.88116407
H 5.21132183 5.08873796 7.01343441
C 5.89888716 4.27336502 6.90190935
H 6.96760035 4.32287550 6.76238012
C 5.88240910 2.96309948 6.99586773
C 4.44030142 2.42893624 6.83815050
H 4.05785465 0.70958501 6.90367746
C 3.20364666 3.10716748 7.11616039
H 2.41780496 3.03286839 6.81333160
C 6.82107687 1.70455337 6.70099878
