36
CSD_code = PEXFIL | q = 0 | S = 0 | Stoichiometry = C17H13ClN2O2Pt | MND = 4 | 2020-2024 CSD
Pt 2.20297122 5.70074081 7.42232943
C 1.42929506 5.78223085 5.57183361
N 0.77640963 7.04017639 7.75801849
O 7.93802691 2.04897451 6.83258009
H 8.60054779 1.34094465 6.81168175
Cl 3.02151895 5.65519857 9.63530064
C 0.55584151 7.62024021 8.93620014
H 1.21168804 7.32511044 9.74610329
N 3.57798314 4.40338802 7.07187510
O 6.51292086 0.33224615 6.93634605
C -0.44953877 8.54856491 9.13550854
H -0.58855504 8.99060726 10.10856724
C -1.26314759 8.89043236 8.06521320
H -2.05853558 9.61064625 8.18385410
C -1.03650737 8.29187775 6.84081507
H -1.65298891 8.54026985 5.99238348
C -0.00686058 7.36329842 6.69944859
C 0.33558029 6.66843748 5.46427250
C -0.33629069 6.83769798 4.25499773
H -1.17362773 7.51550579 4.17895842
C 0.06845170 6.13165188 3.13949251
H -0.45069638 6.25979185 2.20108604
C 1.14135683 5.25854778 3.22682071
H 1.45727146 4.70746136 2.35238385
C 1.81086147 5.08717537 4.42862988
H 2.64493132 4.39706945 4.46219587
C 4.85223103 4.79910707 6.95879507
H 5.02023268 5.87119389 6.92608118
C 5.90579033 3.91216016 6.90260220
H 6.92012453 4.26683903 6.82057953
C 5.63956547 2.54376912 6.96225119
C 4.30914831 2.13645220 7.07706976
H 4.07927895 1.08399880 7.13051701
C 3.31675553 3.09062433 7.12575579
H 2.27181196 2.81173277 7.21702862
C 6.70895386 1.52103662 6.91242313
