54
CSD_code = QUMLOC | q = 1 | S = 0 | Stoichiometry = C18H7F25NP2Pt(1+) | MND = 4 | 2020-2024 CSD
Pt 7.31118631 8.91167927 5.11511946
N 9.12882042 8.66105270 5.62298775
P 6.31441212 7.07107496 6.43872690
P 5.19020271 9.09967327 4.39397955
C 7.96644020 10.59475040 4.10642767
H 8.20538330 11.33916664 4.86838150
H 7.21998930 11.00127316 3.42691326
H 8.86273861 10.35160923 3.53615952
C 4.61804771 6.71469164 5.79674006
H 4.72184229 5.92641592 5.04452276
H 3.98725414 6.31606388 6.60133553
C 3.96548343 7.96716690 5.18739367
H 3.47374368 8.54368496 5.97921419
H 3.18712115 7.68327713 4.46833611
C 6.86748648 5.31924438 6.92010927
F 7.68463469 5.40935087 7.98465252
F 5.82520199 4.54619455 7.26357412
C 7.61686230 4.71609926 5.71022129
F 8.39684391 5.68475914 5.18670988
F 8.36585426 3.67685556 5.98106146
F 6.72913885 4.39589977 4.77028608
C 5.81708336 7.68306017 8.16310978
F 5.07429504 8.78956032 7.89160538
F 5.01231956 6.82054377 8.79435253
C 7.02080059 8.09033871 9.05271244
F 6.87731981 9.29846382 9.55914879
F 8.12198448 8.11839199 8.26092052
F 7.24270439 7.22901917 10.02051258
C 4.22723913 10.73106766 4.41430569
F 2.95120502 10.49860382 4.06009150
F 4.75700665 11.59187698 3.53355122
C 4.30234385 11.35516739 5.83447409
F 5.52168703 11.06555653 6.34029007
F 3.40731621 10.78830242 6.63465118
F 4.14466000 12.65498734 5.84852171
C 5.03053284 8.69936466 2.53542733
F 3.80523801 8.22061253 2.25499797
F 5.23401928 9.78622437 1.78260767
C 6.10605478 7.63178778 2.21351671
F 5.91835260 6.96939135 1.10305619
F 7.31533718 8.18447590 2.21567822
F 6.10587168 6.74907494 3.24772978
C 10.17065620 8.32530403 5.98013353
C 11.41622448 7.88484526 6.43726301
C 12.57610512 8.66070843 6.28051519
F 12.48852730 9.83622742 5.68031359
C 13.80097103 8.19739819 6.75040150
F 14.89121246 8.92914486 6.60125971
C 13.87635517 6.95096493 7.38263893
F 15.03453827 6.51148987 7.82773066
C 12.72695541 6.16675663 7.54377651
F 12.80659103 4.98955870 8.13989639
C 11.50736713 6.63460445 7.07253742
F 10.40573883 5.90544033 7.21011925
