54
QUMLOC seed=1234 prior=1.0; geometry repair, all atoms retained
Pt 6.87402582 8.87442398 4.87139797
N 8.89768887 8.44524956 5.62796354
P 6.02526903 7.33161783 6.27450800
P 5.06006193 9.26371098 4.18872499
C 8.15261364 10.53487873 4.17485666
H 8.22838497 11.13826370 4.45895481
H 7.78934288 11.11298561 3.94703126
H 8.84331226 10.29072285 3.48041224
C 4.71390486 6.66240692 5.73654747
H 4.77869320 5.52975941 4.97698593
H 3.67415118 6.24096298 6.53848696
C 4.32646561 7.87420082 5.21803141
H 3.61559916 8.89828873 5.76427507
H 3.60803628 7.43988228 4.39263773
C 7.16289711 5.21727753 6.69355631
F 7.89108515 6.15806675 7.92438555
F 6.00925779 4.86029482 6.74959326
C 7.95745373 4.42699909 5.73230219
F 8.81503105 5.62223673 5.13432837
F 8.06016254 3.02027321 6.09423018
F 7.11246061 4.10216951 4.93441105
C 5.58587551 7.88300991 8.03968620
F 5.15306520 8.92204475 7.98673534
F 5.11110353 7.03301048 8.53173923
C 6.95373249 7.99031305 8.95118427
F 7.03754663 8.82266903 9.71932983
F 8.19429111 8.31901550 8.44004631
F 7.15624189 7.37331915 9.89475155
C 4.20282650 10.65585136 4.70709133
F 3.15259266 10.42103672 3.97130537
F 4.99746084 11.37056065 3.30268097
C 4.15174580 11.51148796 5.66642189
F 5.81152630 11.62590408 6.33006859
F 3.28259325 11.15884495 6.57608652
F 3.70418787 12.74855423 5.89738607
C 4.70327711 8.91509724 2.35428500
F 3.61298919 8.10612297 2.49582815
F 4.97744274 9.80629063 1.75522077
C 6.47706509 7.62510490 2.29387379
F 5.87175179 6.89519739 1.26596832
F 7.21567488 8.34755135 2.37322664
F 6.09525490 6.95703650 2.91003847
C 10.84812069 8.28332329 5.89951181
C 11.77276993 7.91614008 6.25356293
C 12.48743439 8.59291172 6.45058870
F 12.42984581 10.47110462 5.54330921
C 13.60741901 7.89903164 6.56010056
F 14.25560570 9.27640057 6.89268208
C 13.90737915 7.01913166 7.42355204
F 15.20319271 6.80727768 7.80680418
C 12.62561321 5.90031481 7.97811985
F 12.36637878 5.01698208 8.38686562
C 11.64829922 6.01103687 6.95822525
F 10.41521454 6.05291128 7.47887087
