70
WUMYUB seed=42 prior=1.0; geometry repair, all atoms retained
N 6.40296936 9.84140301 3.52679825
C 8.93596172 5.70870781 4.78473091
O 8.09729004 7.07137585 4.18072462
Pt 6.01929998 7.55226040 4.51157951
N 4.44452381 7.92383623 4.74990749
O 7.05112648 5.79574537 5.71579170
C 7.99617052 5.45250273 5.78700829
C 10.22287273 4.45084333 5.43364668
H 11.26595783 3.83269477 5.53348827
C 9.86181927 5.75251293 4.14802647
C 4.60593414 9.54601383 3.88203263
H 5.22590113 11.04130840 3.27110171
C 3.68381882 9.43840027 4.87574053
C 8.00309563 4.49471903 6.03962898
H 7.44842243 3.71108842 6.69163370
C 9.30358791 3.50860333 5.87206745
C 7.22317791 9.71064949 2.64252162
C 7.65541792 9.39393902 1.52833962
C 8.92675781 9.47339249 0.80995977
H 8.71521282 9.54143810 -0.22779593
C 9.85594368 10.52218628 1.53115070
C 9.18069363 11.45647335 2.47957754
H 10.11296177 11.55242443 3.12417555
C 8.30998421 10.77373123 3.53184009
C 10.85870743 11.75844955 0.74267018
H 11.29185486 11.97476482 1.07761168
H 10.59383965 11.13116264 -0.46443295
H 11.47708130 10.52564430 1.02484953
C 6.53008509 8.22119999 1.03153110
H 7.16165972 8.05209827 -0.23878779
H 5.59085989 8.82228088 0.41973501
H 6.34128046 7.52398300 1.74968565
C 8.08235073 11.24018478 5.16522980
H 8.61345577 11.32238483 5.26938248
H 8.11160564 10.61931229 5.51295137
H 6.72119570 11.62445354 5.04082203
C 2.63176322 9.71436214 4.49798155
H 1.81815457 10.82814884 4.22687483
C 1.88053191 9.08317757 5.39886808
H 0.92844993 9.44611168 5.73700237
C 3.89557981 7.35416985 5.73589325
H 3.99530530 6.34119272 5.86167526
C 10.95757961 6.32787323 3.64337134
C 10.70193100 6.61316586 2.59146023
H 11.41641045 6.93775892 1.37528729
H 9.93278599 7.75213194 2.03365946
H 10.63456249 5.56336975 1.84304237
C 11.29131222 8.16527462 3.69016767
H 11.73367310 9.00810051 3.58432770
H 11.61495495 7.64666414 4.79651165
H 10.46044350 8.61800385 4.04703665
C 12.93804359 6.12928915 3.40941691
H 13.11463737 6.13076735 2.86981583
H 12.18479061 4.64943027 3.06302142
H 12.79905224 5.93838930 4.70551252
C 10.13399220 2.32256937 6.80141401
C 10.10896873 1.50618064 5.27720642
H 10.57743359 0.60351712 5.42292166
H 11.28134727 1.81117845 4.52215528
H 9.23578835 0.92404222 4.28814030
C 10.94102097 2.96013331 7.26524019
H 11.52188206 1.51638710 7.81272078
H 10.94574738 3.61132503 8.00361633
H 11.91015816 3.09880686 6.53084755
C 8.93017960 1.72908282 7.44119120
H 8.97401810 0.85633910 7.51456499
H 8.08027649 2.16304970 6.72594023
H 8.72190380 2.60686326 8.33899307
C 2.32501268 7.79335594 5.81475210
H 1.89055681 7.43987465 6.74702787
