70
WUMYUB seed=0 prior=1.0; geometry repair, all atoms retained
N 5.94581366 9.23418903 2.95025873
C 8.75999260 6.15959072 4.47655296
O 8.16786289 7.07833099 3.97616553
Pt 6.28152561 7.51705694 4.79690838
N 4.62497377 7.93681765 5.47107315
O 6.88220024 5.94261026 5.84798813
C 8.15579319 5.72596884 5.29054260
C 9.99590492 4.33325863 4.74067450
H 11.36489010 4.12083387 5.41894245
C 10.20687580 5.68709040 4.23458385
C 5.39431286 9.86922359 3.52323246
H 4.78904152 10.65242290 2.96329951
C 3.89596272 9.27021790 4.58915901
C 8.54804707 4.26261330 6.13334799
H 7.83598614 3.92439413 6.56360149
C 9.70713806 3.41113758 5.65937233
C 7.26094103 9.93769646 2.95987105
C 7.53621244 9.57722950 1.29969406
C 8.70206547 9.93202305 0.75991845
H 8.79550743 9.29302025 0.13270226
C 9.61628628 10.75609303 1.58685553
C 9.01693726 11.17201900 2.51191783
H 10.21336174 11.57872486 2.96796823
C 8.21049595 10.91997528 3.36408591
C 10.59983349 11.05367088 0.90929592
H 10.50824451 12.35969162 0.82961816
H 10.79811096 10.81496143 -0.39739341
H 11.84442520 9.92403507 1.23896849
C 6.63314438 8.68694782 0.98730373
H 7.09846544 7.98141050 0.00721526
H 5.90167189 9.17247391 0.81330574
H 6.63401413 7.79775000 1.46229661
C 7.91192389 10.80772018 4.65302372
H 8.67077446 11.75221443 5.25827837
H 7.91222668 10.52284050 5.10344458
H 7.15835524 11.99570560 4.73549175
C 2.93330336 9.63542080 4.21477604
H 2.40150118 11.12737370 4.37864017
C 2.20963502 8.62335300 5.41204453
H 0.56230628 9.67591667 5.67840290
C 4.24435234 7.15179634 6.18416119
H 4.05680418 6.24188709 6.11027002
C 10.93564892 6.44691515 3.30776429
C 10.31451130 6.45758104 2.69017577
H 10.79288483 7.50585413 1.01246405
H 9.27722740 7.20371199 1.99525654
H 10.26785088 5.54457617 1.81905830
C 11.14962578 7.98696709 3.95199752
H 11.79364014 8.62081146 3.62070870
H 11.95290947 7.72819471 5.16181898
H 10.18868828 8.45879745 4.21955490
C 12.04867935 5.82971668 3.45564604
H 13.31653404 6.77155828 3.08927226
H 12.12860870 4.95163870 2.94214916
H 12.60133743 5.98558235 4.59440422
C 9.81096935 2.08170772 6.73628426
C 10.23394871 1.58077371 5.29978037
H 10.73892021 0.00194848 5.93494415
H 10.89592361 2.30929923 4.82254696
H 9.43760777 1.43450463 4.72277641
C 10.75981998 3.24131250 7.14202070
H 11.51532936 1.68109524 8.05716228
H 10.59298992 3.44493842 8.24050331
H 11.99541855 3.02260351 6.76654387
C 8.79942799 1.45113730 7.07282543
H 9.12268448 0.94992310 7.77260780
H 7.64490843 1.40414762 6.56061602
H 8.12126064 2.13101196 8.04786110
C 2.24266672 7.22323227 5.91425848
H 1.79861259 7.22772074 6.95440197
