55
YIGDAX seed=42 prior=0.0; geometry repair, all atoms retained
Pt 2.43265915 0.90836012 -0.70739299
N 1.91963768 -1.79378748 -1.23123765
N 0.48055074 0.81073380 -1.16851008
O 2.46506214 1.67773545 0.20469096
O 4.13686752 -0.35419244 -0.36576056
C 2.79511929 -2.67331576 -1.16306496
H 3.49581432 -2.49407649 -0.47246569
C 1.65476108 -3.71216774 -1.47907937
H 2.24285960 -4.86863232 -1.19332027
C 0.35051882 -3.54706001 -2.74358225
H -0.37711582 -4.87596560 -2.65340233
C 0.21572517 -2.22416353 -2.38061047
H -1.51672375 -2.16140699 -2.50702000
C 0.29594898 -1.00949025 -1.92862606
C -0.12363586 0.03082612 -1.79538321
C -1.58078992 0.11736149 -2.29277849
H -2.13391280 -0.50456560 -2.98967576
C -1.81007433 1.71043873 -2.21151114
H -2.64630127 1.59463549 -2.58732414
C -1.25129747 2.73463058 -1.68884504
H -1.12053108 3.43148565 -1.34995627
C 0.06388474 2.52833533 -1.41569901
H 0.98257160 2.62758303 -0.75296688
C 4.00939417 2.41763401 1.00295782
C 3.80810356 3.69893765 2.15132809
H 3.09985042 3.05452538 2.68975782
C 4.66627550 3.72633052 2.74232817
H 4.45351028 3.91094232 3.67565680
C 5.98974752 3.11540318 2.53632236
C 7.32329845 3.70926118 2.96926999
H 6.97553873 4.20195818 3.82910085
C 8.31941891 3.25866795 2.94061875
H 9.47996712 3.57919168 3.78252530
C 8.50854683 2.09100747 1.71720040
H 10.02667046 2.53351235 1.43835282
C 7.29249859 1.95763719 1.02595830
H 7.64383698 1.55491388 -0.15792617
C 5.67154264 2.68191433 1.25777793
C 5.12941074 2.25105619 0.40417004
C 5.38626432 1.65933859 -0.76422763
C 6.28452206 2.12980843 -1.88609242
C 6.44071054 3.35879254 -2.02908921
H 6.29473829 3.85403681 -0.76641864
C 7.51144314 4.08268881 -2.31279659
H 7.88981676 4.85706234 -2.78129315
C 7.96509790 4.02111149 -4.08240938
H 8.41653919 3.82497096 -4.60003471
C 7.17708397 2.39732218 -4.60705662
H 7.09689617 2.12673402 -5.04709530
C 6.39586782 1.30235136 -3.50892949
C 6.05405903 0.37662110 -3.41829848
H 6.57065105 -0.04685414 -4.29522085
C 5.14076757 -0.73764646 -2.32170820
H 4.55161333 -1.62436080 -2.43080354
C 4.77237368 0.41895956 -0.84255862
