55
CSD_code = YIGDAX | q = 0 | S = 0 | Stoichiometry = C30H20N2O2Pt | MND = 4 | 2020-2024 CSD
Pt 2.38415432 0.36801663 -0.66438031
N 1.70737255 -1.31268775 -1.39448404
N 0.64291096 1.01511502 -1.30050123
O 2.78389955 2.09326696 0.28051940
O 4.16000986 -0.40400168 -0.08565234
C 2.33070469 -2.49468613 -1.33509123
H 3.29660654 -2.48572588 -0.84539860
C 1.78388846 -3.64864373 -1.84773326
H 2.32436919 -4.57864141 -1.78210306
C 0.52363062 -3.59299564 -2.44770479
H 0.07360093 -4.48077631 -2.86306977
C -0.13906990 -2.38589764 -2.48692846
H -1.11941350 -2.31699324 -2.92947102
C 0.46214992 -1.24512589 -1.94820738
C -0.14479995 0.06603370 -1.87827337
C -1.43354583 0.38543394 -2.31662750
H -2.05023980 -0.37311617 -2.77026916
C -1.90853214 1.66944885 -2.16209054
H -2.89890480 1.93169677 -2.49988103
C -1.09023046 2.62293482 -1.55456758
H -1.43111074 3.63513446 -1.41249406
C 0.17069943 2.25224304 -1.13999927
H 0.84398997 2.94874692 -0.65757233
C 3.88090777 2.39258647 0.93830127
C 3.71768332 3.12927032 2.14549184
H 2.70416093 3.34432030 2.45265985
C 4.78061247 3.53619361 2.88699889
H 4.62976551 4.09178925 3.80242229
C 6.09970999 3.21994567 2.49278760
C 7.21262836 3.58253670 3.27347231
H 7.04350710 4.13282061 4.18905497
C 8.48099899 3.23995066 2.89214897
H 9.33096409 3.52114081 3.49715877
C 8.67897415 2.50429368 1.71569145
H 9.68129826 2.21590567 1.43254316
C 7.61753511 2.14537263 0.93205220
H 7.78069735 1.56482422 0.03654006
C 6.29701424 2.50691032 1.28122163
C 5.18347502 2.13895750 0.48296916
C 5.38085508 1.50300181 -0.82587302
C 6.09738207 2.15903950 -1.86055124
C 6.56598091 3.48501444 -1.72729099
H 6.35567808 4.02364349 -0.81574017
C 7.26688814 4.08985567 -2.73344398
H 7.61710262 5.10508585 -2.61347747
C 7.53518915 3.40597272 -3.92744946
H 8.09869289 3.89493752 -4.70902634
C 7.07057810 2.13118362 -4.10005713
H 7.25504208 1.59907198 -5.02340889
C 6.33689880 1.48486948 -3.08749962
C 5.82620382 0.17948468 -3.26111579
H 6.03076220 -0.33791643 -4.18880510
C 5.08093739 -0.41822883 -2.29154658
H 4.70325947 -1.42243552 -2.43134046
C 4.82097721 0.23162201 -1.04550767
