82
ZEYZIO seed=1234 prior=0.0; geometry repair, all atoms retained
Pt 8.04705048 6.84649181 9.64169788
Se 7.34086180 4.93154192 8.07418060
Se 9.48458004 8.00293064 7.93499327
P 7.05930138 5.97143745 11.28914261
P 9.41656685 7.83603144 11.64944363
N 5.63326406 4.65602160 9.72042751
N 6.24530792 3.47953248 8.80717754
N 10.46240997 9.42361927 10.18499660
N 11.82903385 9.48412609 8.16653252
C 5.90597439 6.70683002 11.76624966
C 5.06729794 7.66570997 10.62580395
H 6.15499592 7.35932446 9.75519085
C 4.55200481 9.07413197 10.56290722
H 4.47113466 8.96550179 9.80929184
C 4.19859600 8.97237396 11.79131317
H 3.34740114 10.58442688 12.03368664
C 4.56792164 8.77615643 12.64875698
H 4.34062004 8.46161842 14.15279198
C 5.77872276 7.42310429 13.02328491
H 5.42823648 6.37313271 14.09463310
C 7.43657780 3.99283957 12.50451183
C 7.34294701 3.40348148 11.51789188
H 8.06588459 3.49428678 10.74764252
C 7.66045332 2.15205669 11.93757915
H 7.89547157 1.00269878 11.54611397
C 7.19459534 1.27431560 13.62738895
H 7.08812380 0.96324277 14.08327389
C 6.45571136 2.97504807 14.05413342
H 6.12097931 2.61187029 15.46759796
C 6.76148415 4.02088261 13.53649902
H 6.43067837 4.71556330 13.96705818
C 8.30601120 6.78375530 12.56271458
H 8.40009022 7.52253151 13.70186806
H 9.08826065 6.21445608 12.82371902
C 10.44615173 7.95351028 12.39007664
C 10.85019016 8.55182648 13.43055820
H 10.22371483 8.71381092 14.43919373
C 12.19882011 8.21123123 14.09662533
H 13.05442429 8.56430626 15.19036579
C 13.39326191 7.48821449 13.54287529
H 14.33600140 7.61880684 13.94201756
C 13.13416767 7.27167797 11.78336906
H 14.58489895 6.52130508 11.46221066
C 12.22726917 7.23925972 11.42269421
H 11.53527451 6.75260258 10.79430866
C 8.12895298 9.96358299 11.84160709
C 7.64475298 9.43416786 13.07184696
H 7.59702253 9.56643963 14.41932678
C 7.01440430 10.87407589 13.47996235
H 6.88992405 11.41833782 14.41748524
C 6.35883760 11.20398331 12.77702141
H 5.35384512 12.33528614 12.73575211
C 6.92244291 10.42929173 10.94696617
H 6.37035131 11.70658493 10.47397327
C 7.52973366 9.96090031 11.14898872
H 8.14460564 9.21683693 9.82669353
C 6.34993839 4.38608980 8.74722004
C 4.63869429 4.57322836 10.88436127
C 3.77097225 2.89263105 9.86578751
H 3.14800787 2.95186210 10.05266094
C 4.34720707 2.86247873 8.26621151
C 4.03153419 4.57229042 11.92023563
H 3.12474489 4.14262342 11.93237591
H 3.48082328 5.97165155 11.13742733
H 4.75513983 4.48672676 12.77483368
C 4.04177189 1.54351139 7.44060326
H 4.43762875 1.28285968 7.22308302
H 3.02174091 1.76789880 7.63917685
H 4.12652874 0.72136635 8.31259918
C 10.70810032 9.54896927 9.05565643
C 12.56526756 10.47801590 8.21233273
C 11.61260223 10.99474239 9.75638771
H 12.89133072 12.34807396 10.39312172
C 11.32857800 10.87659836 10.43245506
C 13.06577873 11.15036964 7.69674301
H 13.50506496 10.05407524 6.88025427
H 14.55684662 10.52855587 8.45186424
H 13.39952946 12.13361073 7.42757940
C 10.26751709 11.12464237 12.45595741
H 12.02199173 10.33656120 12.61701775
H 10.18827438 11.13340569 12.45696735
H 11.23861885 12.03215408 11.91372490
