82
ZEYZIO seed=0 prior=0.0; geometry repair, all atoms retained
Pt 8.22000694 6.59804201 9.10829258
Se 7.60499239 5.19020462 7.98578691
Se 9.65114975 7.65448809 7.84552288
P 7.10184908 5.50173521 12.10047913
P 9.30831432 7.84985542 11.90267563
N 5.90575027 4.82515955 10.43407726
N 6.03478432 3.63293505 8.16352654
N 10.12574100 9.30339718 9.91642570
N 11.75059891 9.53455830 8.70096207
C 6.02106810 7.08399963 11.62446594
C 5.71806288 7.66883087 10.53951931
H 5.71194935 7.22513914 9.52306843
C 4.22498274 8.70693207 10.91371536
H 4.42897034 9.21242714 9.99829006
C 4.31191349 9.25243855 11.97272396
H 3.39725637 9.47017384 11.90510750
C 4.33795595 8.55765343 13.26068115
H 3.97928071 8.97499847 13.85264397
C 5.38844728 7.60719585 12.93818188
H 5.65315533 6.89299297 14.20768547
C 7.12417746 4.31682873 12.45862865
C 7.30358410 3.19517040 11.39795589
H 8.22609520 3.06693959 10.40091038
C 7.59066725 2.11088157 12.09709454
H 7.79408598 0.96761334 11.82010460
C 6.64644861 1.84524155 13.45631218
H 7.10575247 0.63655448 13.82651711
C 6.73326302 2.04829216 14.26724815
H 6.13848877 3.04829097 15.17411995
C 6.60757256 4.15448618 13.56708622
H 6.43306780 5.35620928 14.23154449
C 8.58776188 6.91991854 12.49184799
H 8.08882713 6.58776951 13.48525047
H 9.09987545 5.86045647 12.87268829
C 11.03261662 8.08107853 11.93751526
C 11.28956795 8.51961040 13.40027618
H 10.58064365 8.73944855 13.72069168
C 12.41327190 8.66539383 14.25233364
H 12.95845318 8.22326374 15.04438591
C 13.07912827 7.94855022 13.38300896
H 14.97157669 7.22412729 14.20719624
C 13.08101273 6.83818865 12.06785679
H 13.82456398 6.51272058 11.25654697
C 11.72785950 7.04521322 12.12575722
H 11.27313328 7.14047098 10.09359646
C 7.96198463 9.39542484 11.78524876
C 7.78943968 9.64377403 13.34715557
H 8.19744968 9.30701542 13.88273430
C 6.88520145 10.94628239 13.45174313
H 7.11819267 11.02156258 14.38228893
C 6.41627884 11.50835514 12.35801411
H 5.44458199 12.29935360 12.42859650
C 7.04323673 11.37423229 11.25057316
H 6.15304804 11.65939713 10.08488560
C 7.39145660 10.21892643 10.97335625
H 7.77764893 9.24356747 10.14577770
C 5.99496174 4.47274065 8.91388321
C 4.52082443 3.70898080 10.68244839
C 3.63591194 3.57993555 9.89357662
H 2.92008066 2.83924150 10.24535561
C 4.26133537 3.21032739 8.44939709
C 3.84206891 4.64937592 11.90814304
H 2.69929719 4.18670321 12.02169037
H 3.50322437 5.65667009 11.43283558
H 4.40055370 4.50847626 12.38620758
C 4.02800560 1.64897692 8.00704861
H 4.44072485 1.27653384 6.98896408
H 2.73199630 1.43734145 7.54810143
H 3.96652579 0.11979759 8.46835518
C 10.78068924 9.12178326 9.30964756
C 12.47732353 10.61828518 8.36867905
C 12.62991524 11.19459343 9.60998535
H 12.37625217 12.12633896 10.26638031
C 11.06256485 10.58518696 10.58040524
C 14.15874767 11.16320324 8.02845764
H 13.64854717 9.89597702 6.97468424
H 14.81756115 11.05323219 8.37398624
H 13.74932766 12.10865593 7.09817791
C 11.07035446 11.13730431 12.24377155
H 11.76414680 10.62314510 12.73766994
H 9.36727524 10.85867023 12.50392628
H 10.91746235 12.24116898 11.35939884
