82
CSD_code = ZEYZIO | q = 0 | S = 0 | Stoichiometry = C37H36N4P2PtSe2 | MND = 4 | 2020-2024 CSD
Pt 8.45117283 6.70437813 9.76925373
Se 7.56869650 5.22042131 8.13071823
Se 9.80686283 7.73658466 8.11415863
P 7.19263506 5.91949797 11.53410339
P 9.23039341 7.89590263 11.58101463
N 5.61026192 4.85692453 10.12985420
N 5.67595434 3.36781979 8.28705978
N 10.48183632 9.48450565 10.24074364
N 11.73317623 9.53641033 8.22672462
C 5.84912348 7.10348654 11.83378601
C 5.38040113 7.74081087 10.68865204
H 5.79401398 7.45229053 9.72455311
C 4.41014910 8.71952820 10.77784634
H 4.05021954 9.20889664 9.88498974
C 3.90318561 9.07434082 12.01786613
H 3.14095068 9.83571148 12.09395313
C 4.38386583 8.46205616 13.16273785
H 4.00002861 8.75071812 14.13071060
C 5.36053562 7.48562670 13.07566643
H 5.73392773 7.02971506 13.98146439
C 7.05325603 4.28657007 12.34038639
C 7.57415485 3.20353198 11.64131546
H 7.98711443 3.36180282 10.65251255
C 7.56166935 1.93959022 12.20019245
H 7.96253967 1.10272443 11.64764214
C 7.03436852 1.75011015 13.46720791
H 7.01581764 0.76261902 13.90414810
C 6.54217386 2.83074808 14.17989445
H 6.14539194 2.68708611 15.17481232
C 6.56009674 4.09844971 13.62528515
H 6.19022417 4.93687916 14.19792843
C 8.45660877 6.62743425 12.73076725
H 8.11025143 6.96218348 13.71208954
H 9.21298409 5.84391356 12.88228321
C 10.88662338 7.85994291 12.34121227
C 11.17744541 8.33609390 13.61170006
H 10.41596413 8.82830048 14.19836330
C 12.45539665 8.19116497 14.12401199
H 12.68341446 8.57098961 15.11000824
C 13.43986225 7.56240845 13.37996292
H 14.43566418 7.45573187 13.78446960
C 13.14478397 7.06371641 12.12106037
H 13.90743446 6.56328535 11.54283237
C 11.87072372 7.20796490 11.60639477
H 11.62394524 6.82039928 10.62423515
C 8.18763447 9.32870579 11.97861195
C 7.83830500 9.73253441 13.26214790
H 8.23262978 9.21918392 14.12790394
C 6.98338032 10.80590916 13.43904877
H 6.72126961 11.12255001 14.43841171
C 6.46017933 11.47042465 12.34267807
H 5.79405737 12.30786324 12.48878288
C 6.78151035 11.05285931 11.06127834
H 6.36087561 11.55911446 10.20522118
C 7.63777542 9.98439598 10.88151550
H 7.89453506 9.63688469 9.88620853
C 6.13827658 4.40397406 8.98273563
C 4.48098135 4.27311850 10.54779434
C 3.94375944 3.19397616 9.86735535
H 3.03573775 2.72314954 10.20785141
C 4.60656404 2.73914647 8.72444153
C 3.77304769 4.82062578 11.74332905
H 2.90374207 4.21003628 11.97374439
H 3.44961572 5.84090376 11.54572487
H 4.43441772 4.83775473 12.60465908
C 4.13010597 1.55632031 7.94949389
H 4.77760792 1.40169406 7.09200287
H 3.10837030 1.71806490 7.61047363
H 4.14069605 0.66846955 8.57972145
C 10.76631069 9.05406284 9.00235844
C 12.48101616 10.52010441 8.68092632
C 12.22829056 11.06178379 9.94077873
H 12.80559254 11.88848782 10.32273483
C 11.20488453 10.51052761 10.69705486
C 13.57625771 11.02406883 7.80120039
H 13.57552147 10.46720028 6.86935091
H 14.53822613 10.90440941 8.29691505
H 13.43225002 12.08292103 7.59342527
C 10.92304993 11.09856892 12.04215622
H 11.70193768 10.79435062 12.74062729
H 9.96141052 10.77568150 12.42018127
H 10.93647957 12.18470478 11.97258377
