42
CSD_code = BURNIO | q = 0 | S = 0 | Stoichiometry = C19H18F2N2Pt | MND = 4 | 2020-2024 CSD
Pt -0.50533092 4.83885908 9.32707596
F 0.90790129 9.36319542 6.61814356
F 6.05176067 1.16342032 4.96195221
N -2.03487611 5.49739313 10.38562393
N -1.02813458 2.95587873 10.36953163
C -0.48664400 6.72189760 8.66909218
C 0.34024319 7.39349985 7.77892971
H 1.17267811 6.89345551 7.30757284
C 0.09324548 8.72564793 7.48625755
C -0.95611209 9.43952179 8.04351997
H -1.10361898 10.47455883 7.77878523
C -1.79002380 8.79102707 8.93179035
H -2.61706400 9.32116985 9.38309860
C -1.56451440 7.45183325 9.24608898
C -2.38692403 6.71106815 10.17101479
H -3.24863601 7.16590834 10.66079044
C -2.69006991 4.58593655 11.27712631
H -3.77179742 4.76945734 11.34098244
H -2.27608538 4.70812178 12.28726292
C -2.42983127 3.16063118 10.76429558
H -2.73036265 2.42571330 11.52804470
H -3.04854250 3.00207329 9.87516022
C -0.90327054 1.71032810 9.61843586
H -1.52597606 1.75203347 8.72487545
H -1.20448661 0.84508139 10.22468281
H 0.13135067 1.58461392 9.30286789
C -0.14867802 2.91367483 11.53561783
H 0.87115788 2.71513104 11.20512486
H -0.45477250 2.12478924 12.23804188
H -0.15470046 3.87177730 12.05814743
C 0.99241519 4.15075970 8.27660656
C 1.89977133 3.60761166 7.67581797
C 2.96259379 2.98681736 6.97751856
C 2.72892952 1.84302890 6.20889330
H 1.72665215 1.44474566 6.14611673
C 3.76215982 1.22960615 5.52899981
H 3.59601212 0.34732398 4.93015862
C 5.03379631 1.76581573 5.62430620
C 5.29756355 2.89654517 6.37666559
H 6.30300093 3.28557897 6.42379570
C 4.25843811 3.50517559 7.05174017
H 4.43848228 4.38969517 7.64424753
