42
BURNIO seed=0 prior=1.0; geometry repair, all atoms retained
Pt -0.78669411 4.81483030 8.57095528
F 0.94419724 9.33297920 6.47321224
F 5.89604759 1.08132362 4.69331646
N -2.11685729 5.07424927 10.95761967
N -0.88772404 2.90891099 10.69412422
C -0.20962301 6.69267273 8.98830986
C 0.69907320 7.65861511 7.65539694
H 0.81658292 6.71234703 6.98325443
C 0.11066797 8.72379589 7.96049452
C -0.78416747 9.42003441 7.83419991
H -0.76595736 10.40257931 7.62965250
C -1.87208867 8.56387615 8.73030567
H -2.80223036 9.30857372 9.51896763
C -1.18576360 7.45536327 9.35938931
C -1.97819614 6.88916636 10.12587261
H -2.99233031 6.80037022 10.47194481
C -2.73597980 4.68153381 11.37506962
H -3.79254532 4.99373817 11.06291580
H -2.24817395 4.82969093 12.14977837
C -2.51060343 3.02390909 10.99051666
H -2.65944123 2.45597172 11.64628696
H -3.31911325 2.99371171 9.63180065
C -0.66428965 1.41546488 9.36683369
H -1.49697804 1.92332482 8.62177753
H -1.37294030 0.70997030 10.39714527
H -0.25656936 1.67974532 9.29197216
C -0.05874334 2.78761029 11.45798683
H 1.06224692 1.93267500 11.29247856
H -0.46167547 2.48599410 12.23734951
H -0.10722458 3.92781377 11.99994850
C 1.23262966 4.49154520 8.38183498
C 2.03092432 3.90009570 7.43689871
C 2.94116926 2.61240363 6.75067902
C 2.61582065 1.85957205 6.19929790
H 1.87264526 1.66588116 5.74241972
C 3.87428260 1.41312289 5.31757545
H 3.76069164 0.25847226 4.45248699
C 4.99167156 2.24004459 5.75262785
C 5.57260227 2.54881930 6.31104279
H 5.94226694 3.67172074 6.42684174
C 4.79435062 3.27357125 7.47446680
H 4.37471104 4.16416740 7.59104395
