71
HEHNER seed=1234 prior=1.0; geometry repair, all atoms retained
Pt 3.12468052 3.38633156 12.69732666
Cl 3.16021919 2.28181314 15.00919819
Cl 0.92927754 4.30314493 13.07406139
P 5.38662720 2.54701781 12.34332275
P 3.12841082 4.14547920 10.90082741
F 8.39580727 0.40442511 17.05610847
F 6.45044374 -2.13008237 9.65136337
F 8.72808933 6.92633772 10.50254059
F 7.48147821 4.71654940 6.88357544
F -0.83095485 0.46486598 7.68689632
F 0.47597069 9.57706738 11.29670525
C 6.46097851 0.64145029 14.70375633
H 5.44068432 0.51535642 14.01432228
C 7.15646982 0.03173366 15.73224068
H 6.75377131 -0.76028293 16.04469681
C 7.94822884 1.79747188 16.30356407
C 8.30674648 2.57500148 15.30333042
H 9.24705887 2.54766607 16.30578804
C 7.89492702 2.65155411 14.62842941
H 7.45396423 3.00654221 14.36261940
C 6.85492945 1.65657783 14.26406670
C 6.66199684 0.57368356 11.27248859
H 7.85339975 0.84513128 12.01681995
C 7.06250811 -0.52033651 10.30860996
H 7.82324076 -1.36362147 10.31708050
C 5.97132444 -1.64562643 10.09775639
C 4.66168785 -0.34319648 10.29787731
H 3.62303615 -0.78426909 9.50164509
C 4.51090717 0.49008632 11.23482323
H 3.79402399 0.99334013 11.03720093
C 5.92330313 0.82019329 11.33605289
C 7.36916637 3.76964545 10.74735165
H 7.95727682 3.19973564 10.46475887
C 8.13019276 5.06203794 10.39577007
H 8.54216862 4.67215633 9.71503544
C 7.71598864 6.15360594 10.83520985
C 6.92425966 6.02854204 12.26668167
H 6.72313404 7.15095949 12.40931892
C 6.76116228 5.05236721 12.55491352
H 5.60904551 5.09920120 13.42902851
C 6.48918724 3.95347810 12.08710098
C 4.73516989 3.49841881 8.56219482
H 4.96310663 2.28496456 8.98205948
C 6.14653873 3.43657374 7.82099581
H 6.07499790 2.48283720 7.63318396
C 6.30021143 5.28659248 7.66811180
C 5.71554613 5.47701931 8.28428459
H 5.74010849 7.07795334 8.58373642
C 4.89423466 5.71201611 9.41042900
H 4.66999245 6.81040621 9.87499809
C 4.16589260 4.13905287 10.01936722
C 1.11019170 3.43534660 8.75149250
H 2.24023247 3.56920528 7.88874531
C 0.66530269 2.78032374 8.06065750
H 0.36974990 2.77794361 7.00893211
C 0.22817592 1.19896173 8.39026260
C 0.38598627 1.33957469 9.55908489
H -0.21206573 0.85819471 10.60869980
C 0.89674056 1.84037626 10.49630165
H 1.34092796 2.19767213 11.40088654
C 1.49687016 3.29583025 9.40505314
C 1.40508699 6.02131033 10.33042431
H 0.89263237 5.53030396 9.41359425
C 0.69016898 7.68697929 9.89396667
H 0.13910702 7.55518627 9.89420795
C 1.16982639 8.38623905 10.71174622
C 1.98451543 7.87196302 12.13668442
H 2.66500688 8.71975994 12.75521088
C 2.78486013 6.75756121 11.58340645
H 3.55063152 6.83667946 12.52566433
C 2.30703139 5.79974222 10.45084000
