71
HEHNER seed=42 prior=0.0; geometry repair, all atoms retained
Pt 3.45610499 3.82801628 12.83667088
Cl 3.70748353 2.02336097 15.19174099
Cl 1.10254383 3.88751292 13.32319069
P 5.20985317 2.08039427 12.56991673
P 2.91105914 4.22199345 10.53929329
F 8.83722019 0.42669821 17.63755989
F 6.08029795 -2.25014567 9.50417900
F 8.61838818 6.92370033 10.92694187
F 7.30411148 4.47884321 7.53255081
F -1.06091774 0.90745807 7.45855570
F 0.33835691 9.25697899 11.56922054
C 6.45479155 0.89615035 14.77943707
H 4.90151834 0.31633881 14.65171242
C 6.56935358 0.51076424 15.82752037
H 6.47952461 -0.69352376 16.35413933
C 7.59453440 0.78068352 16.38768005
C 8.03901768 2.12945199 15.59790516
H 9.00492573 2.87775588 16.23428535
C 7.72934341 2.37701535 14.59336758
H 7.59858847 3.77482009 14.11517334
C 6.78218746 1.74665940 14.16247940
C 6.78638983 0.64982641 11.12021255
H 7.91321135 0.39148343 11.82629585
C 7.09221077 -0.70775545 10.63587952
H 7.98072910 -0.69392842 10.42444515
C 6.20678711 -1.45962667 10.17467308
C 4.47504473 -0.35368329 9.97408104
H 3.53324366 -1.10941601 9.50064087
C 4.42535734 0.46075958 10.98557186
H 3.70330644 1.19763160 10.82178497
C 5.61488056 1.11064672 11.20696926
C 7.35818386 3.63204193 10.96387386
H 7.81644058 2.69743872 10.76034641
C 8.08448887 4.27820921 10.45584297
H 9.32801247 4.89619541 9.67198086
C 7.71820784 5.75013781 11.11025810
C 6.97964811 6.13312101 11.83138466
H 6.35423899 7.30589724 12.41326237
C 6.33608770 5.17114878 12.39575672
H 5.66105556 5.32973194 13.32776165
C 6.77598953 3.76117206 11.90401173
C 4.62051630 3.16423512 8.59808826
H 4.22470188 2.15733814 9.11200237
C 6.03454828 3.39811206 8.42534351
H 6.43638277 2.30261016 7.29529476
C 6.78880167 5.26685333 7.65015650
C 6.22694445 5.70541906 8.58357716
H 6.48222160 6.99683571 7.78531456
C 4.70506477 6.17151165 9.34582901
H 4.56030703 6.33210039 9.47449493
C 4.49508953 4.60263109 9.42784119
C 2.09029245 3.69898558 8.39810753
H 2.15913010 3.87335539 7.97289562
C 0.50418109 2.43092752 7.79244280
H 0.42918786 2.98877716 6.94440842
C 0.18424265 1.46655381 8.77447701
C -0.09396937 1.35163260 9.70317459
H -0.49142289 0.59551591 9.89476395
C 1.14710355 2.02955985 10.22369957
H 0.91118169 1.57458901 11.15894508
C 1.59219861 3.36249971 9.71145821
C 1.22217488 5.93368769 10.07388973
H 0.81994176 5.74077034 9.26602173
C 0.62730986 7.44820118 9.95367813
H -0.08472744 7.85488129 9.87394810
C 1.00739384 8.39812088 11.02014732
C 2.42297983 8.62453938 12.06789017
H 2.97590542 8.86505318 12.95526695
C 2.70720291 6.72611618 11.63965607
H 3.71516395 6.62164783 12.57228184
C 2.20116448 6.05296850 10.81993961
