113
CSD_code = OYUPIK | q = 0 | S = 0 | Stoichiometry = C58H48P4PtS2 | MND = 4 | 2020-2024 CSD
Pt 9.88737106 4.62955856 4.08556890
S 11.21615219 2.99136400 4.97677946
P 11.26406097 6.28974342 4.84594870
P 11.14140797 11.97162724 4.68005610
C 10.44332600 1.50202012 4.45795536
C 11.12591171 0.24748446 4.91450453
H 10.45615292 -0.35123664 5.53354406
H 12.00974083 0.49835488 5.49623537
H 11.42808056 -0.35888827 4.05945587
C 10.50533772 7.88628244 4.40730047
C 11.13731956 9.08762360 4.71104670
H 12.10481644 9.07754517 5.19205427
C 10.51054764 10.27883148 4.40458822
C 11.72415733 6.50368881 6.58648825
C 11.08103180 7.40467644 7.42922783
H 10.30086040 8.04694080 7.04343605
C 11.44466686 7.47847509 8.76182175
H 10.95279503 8.18772316 9.41212177
C 12.43021679 6.64398527 9.26315784
H 12.70946503 6.70511484 10.30475807
C 13.04792309 5.72073221 8.43297768
H 13.80284977 5.05747175 8.82861996
C 12.69467926 5.64507866 7.09983206
H 13.15535069 4.91931963 6.44283676
C 12.85161018 6.41547918 3.96899128
C 13.94887352 7.12387371 4.44684792
H 13.91873646 7.59005642 5.42225075
C 15.09224224 7.21244621 3.67389011
H 15.94476795 7.76308393 4.04397154
C 15.14773846 6.59691811 2.43337727
H 16.04679680 6.66646767 1.83868861
C 14.05768299 5.88435030 1.95884967
H 14.10566616 5.39616203 0.99669081
C 12.91102695 5.79626560 2.72489429
H 12.04512691 5.23063993 2.38295150
C 10.45548630 12.30168343 6.34050131
C 11.07764435 13.29825878 7.08897877
H 11.95973396 13.78444290 6.69234657
C 10.57874870 13.65696239 8.32611847
H 11.07054043 14.42616081 8.90364075
C 9.44466782 13.03342533 8.82231522
H 9.05322838 13.31266403 9.78941441
C 8.81129837 12.05623341 8.07373714
H 7.92348480 11.57270050 8.45579338
C 9.30885315 11.69248390 6.83441639
H 8.80345535 10.92834187 6.25808859
C 12.86604786 11.50856495 5.12401819
C 13.22938919 10.95755863 6.34949350
H 12.49412155 10.85593891 7.13629866
C 14.52901936 10.53381443 6.55872202
H 14.80386543 10.09977436 7.50974369
C 15.47426128 10.65595531 5.55238581
H 16.48760414 10.32227230 5.72218513
C 15.12034416 11.20934296 4.33346939
H 15.85651016 11.30873203 3.54904771
C 13.82104969 11.63432312 4.12144423
H 13.53309250 12.06829739 3.17252088
S 8.55820084 2.99133825 3.19502163
C 9.33090496 1.50201094 3.71407366
C 8.64817142 0.24746820 3.25776601
H 9.31782246 -0.35144553 2.63879633
H 7.76433325 0.49833867 2.67604828
H 8.34598255 -0.35870981 4.11294508
P 8.51024437 6.28971291 3.32584786
P 8.63274288 11.97160816 3.49188948
C 9.26889515 7.88626909 3.76457000
C 8.63687134 9.08760166 3.46086884
H 7.66936970 9.07751656 2.97987008
C 9.26360798 10.27882004 3.76736617
C 8.05030251 6.50366497 1.58527195
C 8.69345284 7.40469646 0.74260020
H 9.47355556 8.04699993 1.12846732
C 8.32996368 7.47845745 -0.59003609
H 8.82186604 8.18772697 -1.24028826
C 7.34453344 6.64389086 -1.09147859
H 7.06538439 6.70500708 -2.13310552
C 6.72677660 5.72062063 -0.26135433
H 5.97191906 5.05732489 -0.65706772
C 7.07987738 5.64500189 1.07183123
H 6.61917734 4.91921997 1.72878098
C 6.92259645 6.41546774 4.20262957
C 5.82540083 7.12384129 3.72458649
H 5.85566044 7.58993149 2.74914312
C 4.68194246 7.21250486 4.49739981
H 3.82947350 7.76312876 4.12716818
C 4.62628746 6.59707880 5.73795557
H 3.72716355 6.66670275 6.33253670
C 5.71626759 5.88451815 6.21266460
H 5.66815853 5.39641190 7.17485905
C 6.86301422 5.79634905 5.44676685
H 7.72885895 5.23073721 5.78886318
C 9.31869984 12.30166531 1.83145750
C 8.69657612 13.29825783 1.08297479
H 7.81447601 13.78444099 1.47958183
C 9.19553185 13.65699196 -0.15413305
H 8.70378208 14.42622185 -0.73164779
C 10.32963276 13.03346443 -0.65029329
H 10.72113132 13.31274223 -1.61735737
C 10.96295357 12.05623722 0.09827961
H 11.85077858 11.57270527 -0.28374836
C 10.46534252 11.69246101 1.33757007
H 10.97070122 10.92828846 1.91388965
C 6.90810442 11.50853348 3.04793668
C 6.54475546 10.95750427 1.82247436
H 7.28001451 10.85587883 1.03566146
C 5.24510908 10.53380680 1.61324656
H 4.97025156 10.09976006 0.66223067
C 4.29986191 10.65601635 2.61956811
H 3.28651118 10.32234764 2.44977689
C 4.65378666 11.20942974 3.83847022
H 3.91762662 11.30883503 4.62289524
C 5.95309591 11.63436317 4.05049419
H 6.24106455 12.06834316 4.99941254
