36
PEXFIL seed=1234 prior=1.0; geometry repair, all atoms retained
Pt 1.93463182 5.79725981 7.28525877
C 1.22683966 5.50184774 5.50355721
N 0.43606815 7.27528524 7.63941431
O 7.80469322 2.10091400 6.58761930
H 8.78672123 1.28107333 6.88011074
Cl 2.96434736 5.57197571 9.28626156
C 1.12519491 7.73195314 9.45631790
H 1.19226146 7.26422405 9.69035625
N 3.61091042 4.30175638 6.91198826
O 6.56977177 -0.06441024 6.86880922
C -0.76264173 8.47346401 9.07266045
H -0.22757307 8.89764118 10.13920498
C -1.12129200 9.24503613 7.85027409
H -1.63762045 9.36725140 8.10815620
C -0.74109674 8.18991089 6.61426210
H -1.44653857 9.28898621 5.93211651
C 0.17719512 7.67739868 6.18546772
C 0.67617160 6.37933731 5.48635340
C 0.08189636 6.77517557 4.20261621
H -1.47931910 6.85892344 4.29212713
C 0.45177349 5.83792162 3.30361772
H -0.68190420 6.45974159 2.07766271
C 1.22012699 5.39103174 3.32195067
H 1.55605531 4.91992807 2.08977056
C 1.74379349 4.98714972 4.32710218
H 2.80515814 3.92127490 4.62237740
C 4.92453718 4.99973106 7.13792086
H 4.93377018 6.01549387 6.80032015
C 5.88137770 3.83694434 7.19538784
H 7.12151194 4.18927193 6.73179340
C 5.88001966 2.32245302 6.73138094
C 4.15855026 2.29277301 6.90901756
H 4.36911821 1.64434671 7.12029552
C 3.19203258 3.46116686 7.06719112
H 1.83133984 2.90529990 7.26589298
C 6.38169813 1.73676920 6.73128080
