54
QUMLOC seed=0 prior=1.0; geometry repair, all atoms retained
Pt 7.13238430 8.77644825 4.64570379
N 9.16024113 8.55294418 5.47201490
P 6.22979069 6.94198704 6.15719366
P 5.08417463 8.79605389 4.86619043
C 7.94102383 10.58833694 4.34964895
H 8.50087166 11.30740166 5.17260408
H 7.57881927 11.26638794 3.30338025
H 8.50664330 10.17050076 3.21184111
C 4.63547039 6.71284008 6.27097702
H 4.89378691 5.90692902 4.83520269
H 4.32491589 6.24408388 6.45220280
C 3.88341856 7.74001551 4.98590946
H 3.28857732 8.53108883 6.11508369
H 3.56587195 7.68680716 4.58163643
C 7.27621460 5.49734259 6.87496710
F 7.94094038 5.04381275 7.79580641
F 5.77929211 4.64179134 7.36151695
C 7.59611464 4.94038010 5.43215513
F 8.42475510 5.80632830 5.04922533
F 8.28508186 3.54013348 6.20728207
F 6.80006027 4.42615843 4.88852882
C 5.54651260 7.67469883 7.91975069
F 5.31327581 8.49469662 7.64000368
F 5.04131746 6.99183512 8.69125462
C 6.85234690 7.95522785 9.22517490
F 6.48939991 9.39359570 9.54825306
F 8.21191883 7.99232769 8.18328953
F 7.43379354 6.44656324 10.10786629
C 4.22033596 11.09227276 4.41361284
F 2.99868083 10.55463982 4.00189209
F 4.99985027 12.01120758 3.56716776
C 4.43349695 11.64765167 5.59555483
F 5.50026274 10.69114304 6.11345053
F 3.29420733 10.80484581 6.62505579
F 4.29065323 12.87612247 5.44482470
C 5.14265585 8.88288116 2.32400322
F 3.96991754 8.13176060 1.77732635
F 5.19189453 10.26045322 1.91092920
C 6.38109350 7.28406191 2.14789414
F 5.55761862 7.35553312 1.10610235
F 7.85124969 7.95287132 2.63840461
F 6.04210043 6.52354717 3.19452596
C 10.08778572 8.27473927 5.69384813
C 11.27336025 7.72209358 6.95662594
C 12.22529316 8.98077965 5.74987650
F 12.26287746 9.90294647 5.48695087
C 13.75210571 8.10863781 6.83540916
F 14.85603237 9.01697636 6.35609007
C 13.77817631 7.09133768 7.39533329
F 15.43146133 6.41050243 7.77160788
C 12.68305492 6.20468760 7.55911207
F 12.45711517 4.98104858 8.07971001
C 11.76909351 6.95597792 7.26183224
F 10.19791126 6.00572348 7.08978367
