54
QUMLOC seed=42 prior=0.0; geometry repair, all atoms retained
Pt 7.35969114 9.45202255 5.07210684
N 9.34108543 8.17995262 5.78623438
P 6.15205193 6.86669350 6.57071829
P 4.87136507 8.68414211 4.31815100
C 7.94329786 10.64455986 3.82631946
H 8.66979790 11.16053677 5.04040766
H 7.41919708 10.99292278 3.79984617
H 8.73361111 10.28808498 3.90481329
C 4.53653812 6.42470074 6.38552284
H 4.54873037 5.97235155 4.74864531
H 3.53653741 5.92087460 6.81100273
C 4.32027864 8.12890148 5.29371166
H 3.07643342 8.69927120 6.40166521
H 3.02092028 7.91891289 4.48791742
C 6.88865042 5.28403664 7.00299931
F 7.53739071 5.14127827 8.00850105
F 5.74152899 4.41474533 7.04416752
C 7.71532011 4.75708914 5.66080046
F 8.64944744 5.34769773 5.09926653
F 8.20478725 3.78855133 5.84678411
F 7.03971863 4.19225073 4.83282375
C 5.71026850 7.95915270 7.88741016
F 5.21287680 8.46839619 7.79621077
F 5.14080620 6.84559155 8.85900879
C 7.11122084 8.66000652 9.05854893
F 7.27300930 9.00866890 9.79624653
F 8.00764751 8.30852890 8.11625004
F 7.06644917 7.04817200 9.89374733
C 4.11727667 10.62652493 4.45784044
F 3.06187510 10.62532806 3.75588918
F 4.68903828 11.66101456 3.17359710
C 4.14076328 11.37388515 5.88294411
F 5.67069006 11.12360764 6.62565660
F 3.23688936 10.37501621 6.63615990
F 4.49003172 12.97259426 5.85433149
C 4.70549631 8.51162910 2.62933350
F 3.66837740 8.21070194 2.06053162
F 4.60854769 9.96122837 1.75916398
C 6.05199051 7.74388647 2.13471770
F 5.92376184 7.12572813 1.16470158
F 7.50247717 8.15524483 2.19013691
F 5.98060131 6.62285280 2.94593167
C 10.10971642 8.15569782 6.02945518
C 11.66077995 7.87767839 6.85791016
C 12.84881878 8.41268444 6.11269951
F 12.91843605 10.45136642 5.52535391
C 14.11881733 8.12743187 6.85939312
F 14.99771881 9.19528389 6.09426022
C 13.71820927 7.47862720 7.35895252
F 15.09350681 6.32897186 7.40630054
C 12.95481014 6.36389303 7.38659382
F 13.34647942 5.28062105 8.03348064
C 11.56719685 6.31518698 7.04237556
F 10.25409317 5.70351505 7.21065617
