70
WUMYUB seed=1234 prior=1.0; geometry repair, all atoms retained
N 5.95062685 9.49404621 3.46044445
C 8.49586201 5.90092802 4.56494665
O 7.91821337 7.66975784 3.79120898
Pt 6.25059032 7.73898649 4.34647608
N 4.70572472 7.89243221 5.07189035
O 6.53091097 5.79741240 5.21703196
C 8.36631584 5.57256651 5.93419361
C 10.33257389 4.45348072 5.00924540
H 11.44332504 4.07040071 4.88451290
C 10.09178257 5.30992079 4.37636709
C 4.74354839 9.86610222 3.60951662
H 5.23208809 10.78660774 3.19542146
C 4.22298479 9.63741779 4.23835039
C 8.59021091 4.01568842 5.94434929
H 7.72266912 3.64432907 6.38219070
C 9.65728283 4.52539158 5.78795147
C 7.49090672 10.15619946 2.34794736
C 7.89755154 9.06384945 1.59984124
C 9.09234142 9.74793148 0.84502113
H 8.57058811 8.77315998 0.01965044
C 9.92868614 10.43210411 1.63273799
C 9.05630016 11.38033009 2.63185382
H 10.05315018 12.00607300 3.31470013
C 8.28028107 10.96115017 3.20457029
C 10.70121956 11.08875656 0.63530618
H 11.05639172 11.78876495 1.00069499
H 10.78048325 11.14164925 -0.14063624
H 11.56687355 10.85079193 1.02585375
C 6.61563492 8.25052643 1.28078187
H 7.25237703 7.84780693 -0.02337161
H 5.89928246 8.53182697 0.54881889
H 6.35226297 7.66158676 1.53316355
C 8.22318745 11.74248123 4.86964178
H 8.65915966 12.10621357 5.20930910
H 7.32576132 10.39527225 5.55600595
H 6.71897650 12.02792168 4.76577377
C 2.57637501 9.60978317 4.93327808
H 2.18704987 10.67321110 4.22293186
C 2.30560637 8.96439552 5.55802441
H 0.87643969 9.21558094 5.83826876
C 3.60877728 7.54647589 5.91898298
H 4.10995865 6.67537642 5.82578230
C 11.69598389 6.45549965 3.51342797
C 10.81392097 6.65162754 1.98711264
H 11.05502605 7.11798573 1.71317649
H 9.44419575 7.77187109 2.05161500
H 10.12316418 5.33497000 1.54374945
C 10.54919815 8.24639130 4.48858929
H 11.92284298 8.54860497 3.64892745
H 11.72464085 8.12496948 5.19701529
H 10.13124657 8.15442562 4.63856268
C 11.95794296 5.86565018 3.76280165
H 13.19573975 5.82661724 2.78566527
H 12.34591198 4.99882650 3.33123636
H 12.73961449 5.72755623 4.77003622
C 10.17792606 2.05497718 6.41720009
C 10.58892441 1.49412274 5.13311672
H 10.85679054 0.86619592 6.13685799
H 11.03098488 1.62199473 4.79475689
H 9.66553497 1.54712534 4.53008175
C 10.84569168 2.89346385 6.95883560
H 11.70479488 1.60400987 8.06925488
H 11.01843739 3.40085840 8.15118885
H 11.97301674 3.33758521 6.47113657
C 9.15401459 1.42938805 7.46145105
H 9.13645077 0.84445757 7.20616293
H 7.64181232 1.41047347 6.79473495
H 8.41100597 2.46156931 8.13893700
C 2.40266991 7.82480097 5.75850201
H 1.72602439 7.65490627 6.70041084
