70
CSD_code = WUMYUB | q = 0 | S = 0 | Stoichiometry = C29H36N2O2Pt | MND = 4 | 2020-2024 CSD
N 6.21966982 9.32879829 3.59370399
C 8.72369671 6.18980742 4.62148428
O 8.27121353 7.30965185 4.08950281
Pt 6.39233446 7.67700577 4.55559301
N 4.53670120 8.10318184 4.99716663
O 6.58671188 5.97437525 5.54376554
C 7.79696274 5.46085358 5.41407537
C 10.35200024 4.51436710 5.06499290
H 11.34746742 4.12268543 4.94470549
C 10.03493118 5.70657730 4.44390392
C 5.05665112 9.94120312 3.67236519
H 4.87110615 10.87957382 3.16478372
C 4.08112907 9.28281403 4.45328951
C 8.16929626 4.25908327 6.02004766
H 7.42725849 3.74629593 6.60874367
C 9.45083237 3.77667570 5.84821844
C 7.30685091 9.84209919 2.86192822
C 7.55696011 9.35294914 1.57776022
C 8.67415428 9.81045341 0.89740288
H 8.87627983 9.42974186 -0.09351849
C 9.54536438 10.72583485 1.46861291
C 9.28750801 11.18038082 2.75527716
H 9.97438049 11.87358856 3.21957016
C 8.18149757 10.74868393 3.46718359
C 10.76828766 11.18878174 0.73683387
H 10.89616489 12.26455975 0.84051353
H 10.70817661 10.94102573 -0.31976223
H 11.65333652 10.70649147 1.15161502
C 6.64004755 8.32574272 0.98799640
H 7.05098963 7.92537403 0.06541444
H 5.65882826 8.75314331 0.77968919
H 6.50286102 7.50526571 1.70121586
C 7.93334818 11.18213367 4.87986326
H 8.78388309 11.73567104 5.26787376
H 7.76623344 10.30170536 5.50714159
H 7.04623222 11.81218910 4.94691610
C 2.76862383 9.72427273 4.69244766
H 2.44362617 10.65314484 4.25031853
C 1.93459618 8.97107887 5.47766733
H 0.92304051 9.28977489 5.67535686
C 3.70843959 7.38340092 5.76143456
H 4.12057543 6.46741486 6.16347361
C 11.01851940 6.49747992 3.59404969
C 10.45737553 6.62033272 2.17081285
H 11.14369678 7.18578243 1.54310298
H 9.50287724 7.13699341 2.18861938
H 10.31671619 5.63333654 1.73405063
C 11.18480587 7.89913559 4.19716692
H 11.89181900 8.48043823 3.60801411
H 11.55598640 7.82918215 5.21794176
H 10.23258877 8.42086697 4.20421934
C 12.39815521 5.83822680 3.51583266
H 13.05480766 6.45018482 2.89997745
H 12.33643627 4.85135555 3.06248450
H 12.84765625 5.75105190 4.50256348
C 9.92785549 2.47502518 6.47671509
C 10.37726307 1.51200688 5.36863279
H 10.69907761 0.56608611 5.80029058
H 11.20377159 1.92333972 4.79632521
H 9.55326462 1.31841266 4.68527174
C 11.10504913 2.77013159 7.41706514
H 11.44630814 1.85234511 7.89234877
H 10.79743481 3.46827126 8.19255733
H 11.94180965 3.20683742 6.87943363
C 8.83329201 1.78041577 7.29127693
H 9.22478485 0.85726649 7.71505356
H 7.98179150 1.52930784 6.66365480
H 8.49763489 2.41173553 8.11023331
C 2.41683698 7.77190399 6.02562428
H 1.78423440 7.15999985 6.64711285
