55
YIGDAX seed=1234 prior=1.0; geometry repair, all atoms retained
Pt 2.09454083 0.47233480 -0.74461871
N 1.45891893 -1.57949317 -1.49713361
N 0.30331823 1.27963293 -1.43786931
O 2.59321785 2.19125295 -0.02878021
O 4.32695055 -0.49236989 0.00411206
C 2.35370684 -2.69558883 -1.74451780
H 3.86595988 -2.37401319 -0.32528055
C 1.76446187 -3.70953035 -1.90348053
H 2.42022657 -4.63092613 -1.84229565
C 0.58048171 -3.98965216 -2.51524162
H -0.23950204 -4.55587721 -2.92591810
C 0.22191207 -2.47886348 -2.45629072
H -0.97755796 -1.96238935 -3.14440989
C 0.88306499 -1.48852074 -2.02390552
C 0.15061066 -0.03593305 -2.10482645
C -1.22709548 1.13414979 -2.37689424
H -1.86618412 -0.05901605 -3.28425002
C -1.56794083 1.38034880 -2.14000964
H -2.48071766 1.86917448 -2.55226278
C -1.39592183 1.96635258 -1.44139862
H -1.04778898 3.34140396 -1.24836898
C -0.06050840 2.45219254 -1.26342261
H 0.92276013 3.08123088 -0.56244224
C 3.97969174 2.60505295 0.67568803
C 3.65061522 3.02924466 2.04396415
H 2.86438775 2.86852574 2.61284137
C 4.85291862 3.73681736 3.06612492
H 4.54330301 4.23608923 3.67666101
C 6.07529736 3.14472985 2.78557301
C 7.41401577 3.50496984 3.18468618
H 7.28396130 3.91150451 3.95818472
C 8.33040142 3.39627147 2.72409654
H 9.62080288 4.08148861 3.48693728
C 8.55425072 2.87483621 1.65712678
H 9.24082661 2.30947280 1.48140764
C 7.29027939 2.36110520 0.75090992
H 7.58844852 1.45033491 0.27737027
C 6.04043770 2.52697682 1.25383472
C 5.55448532 2.13227439 0.56332636
C 5.33425426 1.42880785 -0.66296089
C 5.99771976 2.32211447 -1.70300281
C 6.55536413 3.69297624 -2.06498218
H 7.03314304 3.98166323 -0.89636195
C 7.62343359 4.12115049 -2.91714406
H 7.52843189 5.03728914 -2.44340396
C 7.47650766 4.04085016 -4.06445408
H 7.90514088 3.59657097 -4.89932728
C 6.43497086 2.47843981 -3.80863476
H 7.28606606 1.66723883 -4.98249578
C 6.50555325 1.78065717 -3.10842586
C 5.72486210 -0.08695702 -2.82677221
H 5.59054995 -0.31049308 -3.94183612
C 5.22186995 -1.04179645 -2.40585876
H 4.71273518 -1.27496457 -2.16258860
C 4.71293545 0.20812617 -0.77803469
