55
YIGDAX seed=0 prior=1.0; geometry repair, all atoms retained
Pt 2.25000429 0.30456135 -1.32485294
N 1.70533609 -1.33829558 -1.46928144
N 0.48677203 0.92609990 -1.58424783
O 2.60345292 1.68332303 0.85851866
O 4.26933575 -0.49843875 0.16887374
C 2.62619281 -2.52645111 -1.03086853
H 3.65543652 -2.22061062 -0.96893156
C 1.42779326 -3.82975245 -2.17205167
H 2.34179163 -4.58049297 -1.30786610
C 0.69557524 -3.61248255 -2.65702486
H 0.41126251 -4.55275631 -3.01220250
C -0.22113475 -2.61304903 -2.68841267
H -1.30457985 -2.32958961 -2.79360175
C 0.84090078 -1.24159575 -1.83490705
C 0.26392794 0.24413180 -1.92341542
C -1.17724013 0.01989591 -2.50547361
H -2.09614968 -0.27751914 -2.67232633
C -1.92927992 1.89372957 -2.44015670
H -2.87099338 2.05326605 -2.63736534
C -1.17100275 2.48621273 -1.32834685
H -1.36018932 3.66539288 -1.29425144
C -0.09987138 2.24388146 -1.38335848
H 1.08297086 2.65388370 -0.90917420
C 3.90990591 2.56387782 0.83520353
C 3.54922962 2.99415922 2.31795382
H 2.31624079 3.43945169 2.44176459
C 4.87054729 3.41012907 2.80936766
H 4.82085466 3.30933332 3.88977575
C 6.09280682 3.58115053 2.49209499
C 7.26010418 3.63857317 3.21527314
H 7.28635073 4.55215073 4.22267151
C 8.61215210 3.53243470 2.65322971
H 9.30953979 3.14672709 3.27031946
C 8.56586552 2.52083683 1.70609629
H 9.82729149 2.43704128 1.02884603
C 7.72965813 2.32888937 0.72062808
H 7.94537687 1.47597253 -0.44113156
C 6.25488949 2.98113918 1.40954316
C 5.45851374 1.79123151 0.41734660
C 5.02012110 1.88914359 -0.82282680
C 6.63329458 1.92743504 -1.43782473
C 6.50220966 3.25948668 -1.78049481
H 6.27280760 3.97307849 -1.10202551
C 7.12402391 3.92710400 -2.21408105
H 7.26629066 5.42515755 -3.14411640
C 7.30953932 3.47269154 -4.12081242
H 8.04982758 3.80617738 -4.62401867
C 7.03539801 2.21901488 -4.34522676
H 7.15686321 1.73944497 -5.01071453
C 6.73382187 1.38388205 -3.14362240
C 5.78230333 0.21741544 -3.24578023
H 5.68128681 -0.34642637 -4.24899197
C 5.34266376 -0.09685549 -2.10225177
H 4.49543190 -1.32215261 -2.55167580
C 4.57465839 0.46615249 -0.95366704
