82
ZEYZIO seed=42 prior=0.0; geometry repair, all atoms retained
Pt 8.49967766 7.24472141 9.72624111
Se 7.78096151 4.73932171 8.29396439
Se 9.64450264 7.53220320 8.24615002
P 6.87379742 5.50396633 11.45827484
P 9.20725060 7.94571209 11.30090618
N 6.07467651 4.67829466 10.30188084
N 5.87516212 3.35946918 8.65999222
N 10.35270882 9.42098141 10.60939789
N 11.65166664 9.24641991 8.81550694
C 5.67601156 7.14942217 11.53790855
C 4.92968464 7.34562159 10.89831924
H 6.14880896 7.61402464 9.83087158
C 4.01283884 8.87511444 11.20029736
H 3.88401866 9.44453239 9.90457153
C 3.92434978 9.03913307 12.10075665
H 2.99370670 9.56763935 12.11780167
C 4.30019283 8.33060646 12.94333172
H 4.09848642 8.79170799 14.08129025
C 5.61313915 7.14856529 12.98822308
H 5.57286072 7.14141083 13.84718704
C 7.36383581 4.08292103 12.40292454
C 7.46733999 3.47962427 11.36561584
H 8.12569618 3.04063892 10.55711842
C 7.69015598 1.96463776 12.26484871
H 8.05295944 1.67239189 11.65347862
C 7.43005800 1.46031535 13.70430565
H 6.90148067 0.95275599 13.75947762
C 6.36591864 2.64990115 14.05312920
H 6.03542948 2.58254361 15.21834660
C 6.67076683 4.22517443 13.32108307
H 6.12225580 5.00601673 13.83797455
C 8.29502869 6.64615154 12.77923679
H 8.25925446 7.02023411 13.99745560
H 9.04255676 5.43062735 12.88379192
C 11.23199558 8.17754936 12.34702206
C 10.85240936 8.14835835 13.70560646
H 10.27910328 8.81838989 14.00389671
C 11.82992554 8.36616898 14.10056877
H 12.62935066 8.68308830 15.03120899
C 13.44527149 7.71874523 13.44160843
H 14.62280464 7.42650080 13.75892830
C 13.01951408 6.93749428 11.81926250
H 13.84649467 6.39367867 11.59215355
C 12.11527920 7.20079803 12.02704239
H 11.89665890 6.57237577 10.45641994
C 8.61754322 9.94384480 11.82365227
C 8.15615177 9.66256809 13.37113953
H 8.33913612 9.48532295 13.62090492
C 6.82523441 11.33357143 13.41536236
H 6.78023863 10.94003201 14.01698208
C 6.68803406 11.66756153 12.18549538
H 6.33394623 12.59892559 12.38236713
C 6.84134054 10.73344135 11.03111649
H 6.20922947 11.35718918 10.20575809
C 7.58917189 10.17173386 11.08446407
H 8.10067177 9.48442841 10.21090794
C 5.86998272 4.39814758 8.89130974
C 4.35933733 4.31054974 10.17042542
C 4.02133560 3.08181477 9.59318542
H 2.71826172 2.32877898 9.81071949
C 4.44253540 2.92914820 8.57261658
C 3.84862208 4.48466778 11.66370106
H 3.05205417 4.35308981 11.78480339
H 3.41796422 5.73287344 11.19713879
H 4.53130531 4.78642178 12.75457382
C 3.87933946 1.55539286 7.74900532
H 4.87609339 2.03543591 7.15428829
H 3.33263946 1.91319263 7.83923340
H 4.04887152 0.68992138 8.36884880
C 10.87263298 9.33393764 9.10227394
C 12.45940113 10.73124218 8.58143234
C 12.20678711 11.54985714 9.83523273
H 12.94277000 11.92588043 9.82907867
C 11.19625759 10.19451046 10.63344955
C 13.58208942 11.52613449 8.04609394
H 13.92259693 10.22087193 6.74860001
H 14.53339195 10.46975803 8.33901310
H 13.49758148 12.02713680 7.38035440
C 10.99138927 11.34642220 12.41297626
H 11.78893375 10.82579517 12.57572651
H 9.56722450 10.60972977 12.78745556
H 11.01127720 12.04567051 11.98410702
